7000
Lattice="102.21228522051544 0.0 0.0 0.0 50.58196318847262 0.0 0.0 0.0 121.46010950577839" Properties=species:S:1:pos:R:3:tags:I:1 pbc="T T F"
Au       0.00000000       0.00000000      50.00000000       10
Au       2.92035101       0.00000000      50.00000000       10
Au       5.84070201       0.00000000      50.00000000       10
Au       8.76105302       0.00000000      50.00000000       10
Au      11.68140403       0.00000000      50.00000000       10
Au      14.60175503       0.00000000      50.00000000       10
Au      17.52210604       0.00000000      50.00000000       10
Au      20.44245704       0.00000000      50.00000000       10
Au      23.36280805       0.00000000      50.00000000       10
Au      26.28315906       0.00000000      50.00000000       10
Au      29.20351006       0.00000000      50.00000000       10
Au      32.12386107       0.00000000      50.00000000       10
Au      35.04421208       0.00000000      50.00000000       10
Au      37.96456308       0.00000000      50.00000000       10
Au      40.88491409       0.00000000      50.00000000       10
Au      43.80526509       0.00000000      50.00000000       10
Au      46.72561610       0.00000000      50.00000000       10
Au      49.64596711       0.00000000      50.00000000       10
Au      52.56631811       0.00000000      50.00000000       10
Au      55.48666912       0.00000000      50.00000000       10
Au      58.40702013       0.00000000      50.00000000       10
Au      61.32737113       0.00000000      50.00000000       10
Au      64.24772214       0.00000000      50.00000000       10
Au      67.16807314       0.00000000      50.00000000       10
Au      70.08842415       0.00000000      50.00000000       10
Au      73.00877516       0.00000000      50.00000000       10
Au      75.92912616       0.00000000      50.00000000       10
Au      78.84947717       0.00000000      50.00000000       10
Au      81.76982818       0.00000000      50.00000000       10
Au      84.69017918       0.00000000      50.00000000       10
Au      87.61053019       0.00000000      50.00000000       10
Au      90.53088120       0.00000000      50.00000000       10
Au      93.45123220       0.00000000      50.00000000       10
Au      96.37158321       0.00000000      50.00000000       10
Au      99.29193421       0.00000000      50.00000000       10
Au       1.46017550       2.52909816      50.00000000       10
Au       4.38052651       2.52909816      50.00000000       10
Au       7.30087752       2.52909816      50.00000000       10
Au      10.22122852       2.52909816      50.00000000       10
Au      13.14157953       2.52909816      50.00000000       10
Au      16.06193053       2.52909816      50.00000000       10
Au      18.98228154       2.52909816      50.00000000       10
Au      21.90263255       2.52909816      50.00000000       10
Au      24.82298355       2.52909816      50.00000000       10
Au      27.74333456       2.52909816      50.00000000       10
Au      30.66368557       2.52909816      50.00000000       10
Au      33.58403657       2.52909816      50.00000000       10
Au      36.50438758       2.52909816      50.00000000       10
Au      39.42473859       2.52909816      50.00000000       10
Au      42.34508959       2.52909816      50.00000000       10
Au      45.26544060       2.52909816      50.00000000       10
Au      48.18579160       2.52909816      50.00000000       10
Au      51.10614261       2.52909816      50.00000000       10
Au      54.02649362       2.52909816      50.00000000       10
Au      56.94684462       2.52909816      50.00000000       10
Au      59.86719563       2.52909816      50.00000000       10
Au      62.78754664       2.52909816      50.00000000       10
Au      65.70789764       2.52909816      50.00000000       10
Au      68.62824865       2.52909816      50.00000000       10
Au      71.54859965       2.52909816      50.00000000       10
Au      74.46895066       2.52909816      50.00000000       10
Au      77.38930167       2.52909816      50.00000000       10
Au      80.30965267       2.52909816      50.00000000       10
Au      83.23000368       2.52909816      50.00000000       10
Au      86.15035469       2.52909816      50.00000000       10
Au      89.07070569       2.52909816      50.00000000       10
Au      91.99105670       2.52909816      50.00000000       10
Au      94.91140770       2.52909816      50.00000000       10
Au      97.83175871       2.52909816      50.00000000       10
Au     100.75210972       2.52909816      50.00000000       10
Au       0.00000000       5.05819632      50.00000000       10
Au       2.92035101       5.05819632      50.00000000       10
Au       5.84070201       5.05819632      50.00000000       10
Au       8.76105302       5.05819632      50.00000000       10
Au      11.68140403       5.05819632      50.00000000       10
Au      14.60175503       5.05819632      50.00000000       10
Au      17.52210604       5.05819632      50.00000000       10
Au      20.44245704       5.05819632      50.00000000       10
Au      23.36280805       5.05819632      50.00000000       10
Au      26.28315906       5.05819632      50.00000000       10
Au      29.20351006       5.05819632      50.00000000       10
Au      32.12386107       5.05819632      50.00000000       10
Au      35.04421208       5.05819632      50.00000000       10
Au      37.96456308       5.05819632      50.00000000       10
Au      40.88491409       5.05819632      50.00000000       10
Au      43.80526509       5.05819632      50.00000000       10
Au      46.72561610       5.05819632      50.00000000       10
Au      49.64596711       5.05819632      50.00000000       10
Au      52.56631811       5.05819632      50.00000000       10
Au      55.48666912       5.05819632      50.00000000       10
Au      58.40702013       5.05819632      50.00000000       10
Au      61.32737113       5.05819632      50.00000000       10
Au      64.24772214       5.05819632      50.00000000       10
Au      67.16807314       5.05819632      50.00000000       10
Au      70.08842415       5.05819632      50.00000000       10
Au      73.00877516       5.05819632      50.00000000       10
Au      75.92912616       5.05819632      50.00000000       10
Au      78.84947717       5.05819632      50.00000000       10
Au      81.76982818       5.05819632      50.00000000       10
Au      84.69017918       5.05819632      50.00000000       10
Au      87.61053019       5.05819632      50.00000000       10
Au      90.53088120       5.05819632      50.00000000       10
Au      93.45123220       5.05819632      50.00000000       10
Au      96.37158321       5.05819632      50.00000000       10
Au      99.29193421       5.05819632      50.00000000       10
Au       1.46017550       7.58729448      50.00000000       10
Au       4.38052651       7.58729448      50.00000000       10
Au       7.30087752       7.58729448      50.00000000       10
Au      10.22122852       7.58729448      50.00000000       10
Au      13.14157953       7.58729448      50.00000000       10
Au      16.06193053       7.58729448      50.00000000       10
Au      18.98228154       7.58729448      50.00000000       10
Au      21.90263255       7.58729448      50.00000000       10
Au      24.82298355       7.58729448      50.00000000       10
Au      27.74333456       7.58729448      50.00000000       10
Au      30.66368557       7.58729448      50.00000000       10
Au      33.58403657       7.58729448      50.00000000       10
Au      36.50438758       7.58729448      50.00000000       10
Au      39.42473859       7.58729448      50.00000000       10
Au      42.34508959       7.58729448      50.00000000       10
Au      45.26544060       7.58729448      50.00000000       10
Au      48.18579160       7.58729448      50.00000000       10
Au      51.10614261       7.58729448      50.00000000       10
Au      54.02649362       7.58729448      50.00000000       10
Au      56.94684462       7.58729448      50.00000000       10
Au      59.86719563       7.58729448      50.00000000       10
Au      62.78754664       7.58729448      50.00000000       10
Au      65.70789764       7.58729448      50.00000000       10
Au      68.62824865       7.58729448      50.00000000       10
Au      71.54859965       7.58729448      50.00000000       10
Au      74.46895066       7.58729448      50.00000000       10
Au      77.38930167       7.58729448      50.00000000       10
Au      80.30965267       7.58729448      50.00000000       10
Au      83.23000368       7.58729448      50.00000000       10
Au      86.15035469       7.58729448      50.00000000       10
Au      89.07070569       7.58729448      50.00000000       10
Au      91.99105670       7.58729448      50.00000000       10
Au      94.91140770       7.58729448      50.00000000       10
Au      97.83175871       7.58729448      50.00000000       10
Au     100.75210972       7.58729448      50.00000000       10
Au       0.00000000      10.11639264      50.00000000       10
Au       2.92035101      10.11639264      50.00000000       10
Au       5.84070201      10.11639264      50.00000000       10
Au       8.76105302      10.11639264      50.00000000       10
Au      11.68140403      10.11639264      50.00000000       10
Au      14.60175503      10.11639264      50.00000000       10
Au      17.52210604      10.11639264      50.00000000       10
Au      20.44245704      10.11639264      50.00000000       10
Au      23.36280805      10.11639264      50.00000000       10
Au      26.28315906      10.11639264      50.00000000       10
Au      29.20351006      10.11639264      50.00000000       10
Au      32.12386107      10.11639264      50.00000000       10
Au      35.04421208      10.11639264      50.00000000       10
Au      37.96456308      10.11639264      50.00000000       10
Au      40.88491409      10.11639264      50.00000000       10
Au      43.80526509      10.11639264      50.00000000       10
Au      46.72561610      10.11639264      50.00000000       10
Au      49.64596711      10.11639264      50.00000000       10
Au      52.56631811      10.11639264      50.00000000       10
Au      55.48666912      10.11639264      50.00000000       10
Au      58.40702013      10.11639264      50.00000000       10
Au      61.32737113      10.11639264      50.00000000       10
Au      64.24772214      10.11639264      50.00000000       10
Au      67.16807314      10.11639264      50.00000000       10
Au      70.08842415      10.11639264      50.00000000       10
Au      73.00877516      10.11639264      50.00000000       10
Au      75.92912616      10.11639264      50.00000000       10
Au      78.84947717      10.11639264      50.00000000       10
Au      81.76982818      10.11639264      50.00000000       10
Au      84.69017918      10.11639264      50.00000000       10
Au      87.61053019      10.11639264      50.00000000       10
Au      90.53088120      10.11639264      50.00000000       10
Au      93.45123220      10.11639264      50.00000000       10
Au      96.37158321      10.11639264      50.00000000       10
Au      99.29193421      10.11639264      50.00000000       10
Au       1.46017550      12.64549080      50.00000000       10
Au       4.38052651      12.64549080      50.00000000       10
Au       7.30087752      12.64549080      50.00000000       10
Au      10.22122852      12.64549080      50.00000000       10
Au      13.14157953      12.64549080      50.00000000       10
Au      16.06193053      12.64549080      50.00000000       10
Au      18.98228154      12.64549080      50.00000000       10
Au      21.90263255      12.64549080      50.00000000       10
Au      24.82298355      12.64549080      50.00000000       10
Au      27.74333456      12.64549080      50.00000000       10
Au      30.66368557      12.64549080      50.00000000       10
Au      33.58403657      12.64549080      50.00000000       10
Au      36.50438758      12.64549080      50.00000000       10
Au      39.42473859      12.64549080      50.00000000       10
Au      42.34508959      12.64549080      50.00000000       10
Au      45.26544060      12.64549080      50.00000000       10
Au      48.18579160      12.64549080      50.00000000       10
Au      51.10614261      12.64549080      50.00000000       10
Au      54.02649362      12.64549080      50.00000000       10
Au      56.94684462      12.64549080      50.00000000       10
Au      59.86719563      12.64549080      50.00000000       10
Au      62.78754664      12.64549080      50.00000000       10
Au      65.70789764      12.64549080      50.00000000       10
Au      68.62824865      12.64549080      50.00000000       10
Au      71.54859965      12.64549080      50.00000000       10
Au      74.46895066      12.64549080      50.00000000       10
Au      77.38930167      12.64549080      50.00000000       10
Au      80.30965267      12.64549080      50.00000000       10
Au      83.23000368      12.64549080      50.00000000       10
Au      86.15035469      12.64549080      50.00000000       10
Au      89.07070569      12.64549080      50.00000000       10
Au      91.99105670      12.64549080      50.00000000       10
Au      94.91140770      12.64549080      50.00000000       10
Au      97.83175871      12.64549080      50.00000000       10
Au     100.75210972      12.64549080      50.00000000       10
Au       0.00000000      15.17458896      50.00000000       10
Au       2.92035101      15.17458896      50.00000000       10
Au       5.84070201      15.17458896      50.00000000       10
Au       8.76105302      15.17458896      50.00000000       10
Au      11.68140403      15.17458896      50.00000000       10
Au      14.60175503      15.17458896      50.00000000       10
Au      17.52210604      15.17458896      50.00000000       10
Au      20.44245704      15.17458896      50.00000000       10
Au      23.36280805      15.17458896      50.00000000       10
Au      26.28315906      15.17458896      50.00000000       10
Au      29.20351006      15.17458896      50.00000000       10
Au      32.12386107      15.17458896      50.00000000       10
Au      35.04421208      15.17458896      50.00000000       10
Au      37.96456308      15.17458896      50.00000000       10
Au      40.88491409      15.17458896      50.00000000       10
Au      43.80526509      15.17458896      50.00000000       10
Au      46.72561610      15.17458896      50.00000000       10
Au      49.64596711      15.17458896      50.00000000       10
Au      52.56631811      15.17458896      50.00000000       10
Au      55.48666912      15.17458896      50.00000000       10
Au      58.40702013      15.17458896      50.00000000       10
Au      61.32737113      15.17458896      50.00000000       10
Au      64.24772214      15.17458896      50.00000000       10
Au      67.16807314      15.17458896      50.00000000       10
Au      70.08842415      15.17458896      50.00000000       10
Au      73.00877516      15.17458896      50.00000000       10
Au      75.92912616      15.17458896      50.00000000       10
Au      78.84947717      15.17458896      50.00000000       10
Au      81.76982818      15.17458896      50.00000000       10
Au      84.69017918      15.17458896      50.00000000       10
Au      87.61053019      15.17458896      50.00000000       10
Au      90.53088120      15.17458896      50.00000000       10
Au      93.45123220      15.17458896      50.00000000       10
Au      96.37158321      15.17458896      50.00000000       10
Au      99.29193421      15.17458896      50.00000000       10
Au       1.46017550      17.70368712      50.00000000       10
Au       4.38052651      17.70368712      50.00000000       10
Au       7.30087752      17.70368712      50.00000000       10
Au      10.22122852      17.70368712      50.00000000       10
Au      13.14157953      17.70368712      50.00000000       10
Au      16.06193053      17.70368712      50.00000000       10
Au      18.98228154      17.70368712      50.00000000       10
Au      21.90263255      17.70368712      50.00000000       10
Au      24.82298355      17.70368712      50.00000000       10
Au      27.74333456      17.70368712      50.00000000       10
Au      30.66368557      17.70368712      50.00000000       10
Au      33.58403657      17.70368712      50.00000000       10
Au      36.50438758      17.70368712      50.00000000       10
Au      39.42473859      17.70368712      50.00000000       10
Au      42.34508959      17.70368712      50.00000000       10
Au      45.26544060      17.70368712      50.00000000       10
Au      48.18579160      17.70368712      50.00000000       10
Au      51.10614261      17.70368712      50.00000000       10
Au      54.02649362      17.70368712      50.00000000       10
Au      56.94684462      17.70368712      50.00000000       10
Au      59.86719563      17.70368712      50.00000000       10
Au      62.78754664      17.70368712      50.00000000       10
Au      65.70789764      17.70368712      50.00000000       10
Au      68.62824865      17.70368712      50.00000000       10
Au      71.54859965      17.70368712      50.00000000       10
Au      74.46895066      17.70368712      50.00000000       10
Au      77.38930167      17.70368712      50.00000000       10
Au      80.30965267      17.70368712      50.00000000       10
Au      83.23000368      17.70368712      50.00000000       10
Au      86.15035469      17.70368712      50.00000000       10
Au      89.07070569      17.70368712      50.00000000       10
Au      91.99105670      17.70368712      50.00000000       10
Au      94.91140770      17.70368712      50.00000000       10
Au      97.83175871      17.70368712      50.00000000       10
Au     100.75210972      17.70368712      50.00000000       10
Au       0.00000000      20.23278528      50.00000000       10
Au       2.92035101      20.23278528      50.00000000       10
Au       5.84070201      20.23278528      50.00000000       10
Au       8.76105302      20.23278528      50.00000000       10
Au      11.68140403      20.23278528      50.00000000       10
Au      14.60175503      20.23278528      50.00000000       10
Au      17.52210604      20.23278528      50.00000000       10
Au      20.44245704      20.23278528      50.00000000       10
Au      23.36280805      20.23278528      50.00000000       10
Au      26.28315906      20.23278528      50.00000000       10
Au      29.20351006      20.23278528      50.00000000       10
Au      32.12386107      20.23278528      50.00000000       10
Au      35.04421208      20.23278528      50.00000000       10
Au      37.96456308      20.23278528      50.00000000       10
Au      40.88491409      20.23278528      50.00000000       10
Au      43.80526509      20.23278528      50.00000000       10
Au      46.72561610      20.23278528      50.00000000       10
Au      49.64596711      20.23278528      50.00000000       10
Au      52.56631811      20.23278528      50.00000000       10
Au      55.48666912      20.23278528      50.00000000       10
Au      58.40702013      20.23278528      50.00000000       10
Au      61.32737113      20.23278528      50.00000000       10
Au      64.24772214      20.23278528      50.00000000       10
Au      67.16807314      20.23278528      50.00000000       10
Au      70.08842415      20.23278528      50.00000000       10
Au      73.00877516      20.23278528      50.00000000       10
Au      75.92912616      20.23278528      50.00000000       10
Au      78.84947717      20.23278528      50.00000000       10
Au      81.76982818      20.23278528      50.00000000       10
Au      84.69017918      20.23278528      50.00000000       10
Au      87.61053019      20.23278528      50.00000000       10
Au      90.53088120      20.23278528      50.00000000       10
Au      93.45123220      20.23278528      50.00000000       10
Au      96.37158321      20.23278528      50.00000000       10
Au      99.29193421      20.23278528      50.00000000       10
Au       1.46017550      22.76188343      50.00000000       10
Au       4.38052651      22.76188343      50.00000000       10
Au       7.30087752      22.76188343      50.00000000       10
Au      10.22122852      22.76188343      50.00000000       10
Au      13.14157953      22.76188343      50.00000000       10
Au      16.06193053      22.76188343      50.00000000       10
Au      18.98228154      22.76188343      50.00000000       10
Au      21.90263255      22.76188343      50.00000000       10
Au      24.82298355      22.76188343      50.00000000       10
Au      27.74333456      22.76188343      50.00000000       10
Au      30.66368557      22.76188343      50.00000000       10
Au      33.58403657      22.76188343      50.00000000       10
Au      36.50438758      22.76188343      50.00000000       10
Au      39.42473859      22.76188343      50.00000000       10
Au      42.34508959      22.76188343      50.00000000       10
Au      45.26544060      22.76188343      50.00000000       10
Au      48.18579160      22.76188343      50.00000000       10
Au      51.10614261      22.76188343      50.00000000       10
Au      54.02649362      22.76188343      50.00000000       10
Au      56.94684462      22.76188343      50.00000000       10
Au      59.86719563      22.76188343      50.00000000       10
Au      62.78754664      22.76188343      50.00000000       10
Au      65.70789764      22.76188343      50.00000000       10
Au      68.62824865      22.76188343      50.00000000       10
Au      71.54859965      22.76188343      50.00000000       10
Au      74.46895066      22.76188343      50.00000000       10
Au      77.38930167      22.76188343      50.00000000       10
Au      80.30965267      22.76188343      50.00000000       10
Au      83.23000368      22.76188343      50.00000000       10
Au      86.15035469      22.76188343      50.00000000       10
Au      89.07070569      22.76188343      50.00000000       10
Au      91.99105670      22.76188343      50.00000000       10
Au      94.91140770      22.76188343      50.00000000       10
Au      97.83175871      22.76188343      50.00000000       10
Au     100.75210972      22.76188343      50.00000000       10
Au       0.00000000      25.29098159      50.00000000       10
Au       2.92035101      25.29098159      50.00000000       10
Au       5.84070201      25.29098159      50.00000000       10
Au       8.76105302      25.29098159      50.00000000       10
Au      11.68140403      25.29098159      50.00000000       10
Au      14.60175503      25.29098159      50.00000000       10
Au      17.52210604      25.29098159      50.00000000       10
Au      20.44245704      25.29098159      50.00000000       10
Au      23.36280805      25.29098159      50.00000000       10
Au      26.28315906      25.29098159      50.00000000       10
Au      29.20351006      25.29098159      50.00000000       10
Au      32.12386107      25.29098159      50.00000000       10
Au      35.04421208      25.29098159      50.00000000       10
Au      37.96456308      25.29098159      50.00000000       10
Au      40.88491409      25.29098159      50.00000000       10
Au      43.80526509      25.29098159      50.00000000       10
Au      46.72561610      25.29098159      50.00000000       10
Au      49.64596711      25.29098159      50.00000000       10
Au      52.56631811      25.29098159      50.00000000       10
Au      55.48666912      25.29098159      50.00000000       10
Au      58.40702013      25.29098159      50.00000000       10
Au      61.32737113      25.29098159      50.00000000       10
Au      64.24772214      25.29098159      50.00000000       10
Au      67.16807314      25.29098159      50.00000000       10
Au      70.08842415      25.29098159      50.00000000       10
Au      73.00877516      25.29098159      50.00000000       10
Au      75.92912616      25.29098159      50.00000000       10
Au      78.84947717      25.29098159      50.00000000       10
Au      81.76982818      25.29098159      50.00000000       10
Au      84.69017918      25.29098159      50.00000000       10
Au      87.61053019      25.29098159      50.00000000       10
Au      90.53088120      25.29098159      50.00000000       10
Au      93.45123220      25.29098159      50.00000000       10
Au      96.37158321      25.29098159      50.00000000       10
Au      99.29193421      25.29098159      50.00000000       10
Au       1.46017550      27.82007975      50.00000000       10
Au       4.38052651      27.82007975      50.00000000       10
Au       7.30087752      27.82007975      50.00000000       10
Au      10.22122852      27.82007975      50.00000000       10
Au      13.14157953      27.82007975      50.00000000       10
Au      16.06193053      27.82007975      50.00000000       10
Au      18.98228154      27.82007975      50.00000000       10
Au      21.90263255      27.82007975      50.00000000       10
Au      24.82298355      27.82007975      50.00000000       10
Au      27.74333456      27.82007975      50.00000000       10
Au      30.66368557      27.82007975      50.00000000       10
Au      33.58403657      27.82007975      50.00000000       10
Au      36.50438758      27.82007975      50.00000000       10
Au      39.42473859      27.82007975      50.00000000       10
Au      42.34508959      27.82007975      50.00000000       10
Au      45.26544060      27.82007975      50.00000000       10
Au      48.18579160      27.82007975      50.00000000       10
Au      51.10614261      27.82007975      50.00000000       10
Au      54.02649362      27.82007975      50.00000000       10
Au      56.94684462      27.82007975      50.00000000       10
Au      59.86719563      27.82007975      50.00000000       10
Au      62.78754664      27.82007975      50.00000000       10
Au      65.70789764      27.82007975      50.00000000       10
Au      68.62824865      27.82007975      50.00000000       10
Au      71.54859965      27.82007975      50.00000000       10
Au      74.46895066      27.82007975      50.00000000       10
Au      77.38930167      27.82007975      50.00000000       10
Au      80.30965267      27.82007975      50.00000000       10
Au      83.23000368      27.82007975      50.00000000       10
Au      86.15035469      27.82007975      50.00000000       10
Au      89.07070569      27.82007975      50.00000000       10
Au      91.99105670      27.82007975      50.00000000       10
Au      94.91140770      27.82007975      50.00000000       10
Au      97.83175871      27.82007975      50.00000000       10
Au     100.75210972      27.82007975      50.00000000       10
Au       0.00000000      30.34917791      50.00000000       10
Au       2.92035101      30.34917791      50.00000000       10
Au       5.84070201      30.34917791      50.00000000       10
Au       8.76105302      30.34917791      50.00000000       10
Au      11.68140403      30.34917791      50.00000000       10
Au      14.60175503      30.34917791      50.00000000       10
Au      17.52210604      30.34917791      50.00000000       10
Au      20.44245704      30.34917791      50.00000000       10
Au      23.36280805      30.34917791      50.00000000       10
Au      26.28315906      30.34917791      50.00000000       10
Au      29.20351006      30.34917791      50.00000000       10
Au      32.12386107      30.34917791      50.00000000       10
Au      35.04421208      30.34917791      50.00000000       10
Au      37.96456308      30.34917791      50.00000000       10
Au      40.88491409      30.34917791      50.00000000       10
Au      43.80526509      30.34917791      50.00000000       10
Au      46.72561610      30.34917791      50.00000000       10
Au      49.64596711      30.34917791      50.00000000       10
Au      52.56631811      30.34917791      50.00000000       10
Au      55.48666912      30.34917791      50.00000000       10
Au      58.40702013      30.34917791      50.00000000       10
Au      61.32737113      30.34917791      50.00000000       10
Au      64.24772214      30.34917791      50.00000000       10
Au      67.16807314      30.34917791      50.00000000       10
Au      70.08842415      30.34917791      50.00000000       10
Au      73.00877516      30.34917791      50.00000000       10
Au      75.92912616      30.34917791      50.00000000       10
Au      78.84947717      30.34917791      50.00000000       10
Au      81.76982818      30.34917791      50.00000000       10
Au      84.69017918      30.34917791      50.00000000       10
Au      87.61053019      30.34917791      50.00000000       10
Au      90.53088120      30.34917791      50.00000000       10
Au      93.45123220      30.34917791      50.00000000       10
Au      96.37158321      30.34917791      50.00000000       10
Au      99.29193421      30.34917791      50.00000000       10
Au       1.46017550      32.87827607      50.00000000       10
Au       4.38052651      32.87827607      50.00000000       10
Au       7.30087752      32.87827607      50.00000000       10
Au      10.22122852      32.87827607      50.00000000       10
Au      13.14157953      32.87827607      50.00000000       10
Au      16.06193053      32.87827607      50.00000000       10
Au      18.98228154      32.87827607      50.00000000       10
Au      21.90263255      32.87827607      50.00000000       10
Au      24.82298355      32.87827607      50.00000000       10
Au      27.74333456      32.87827607      50.00000000       10
Au      30.66368557      32.87827607      50.00000000       10
Au      33.58403657      32.87827607      50.00000000       10
Au      36.50438758      32.87827607      50.00000000       10
Au      39.42473859      32.87827607      50.00000000       10
Au      42.34508959      32.87827607      50.00000000       10
Au      45.26544060      32.87827607      50.00000000       10
Au      48.18579160      32.87827607      50.00000000       10
Au      51.10614261      32.87827607      50.00000000       10
Au      54.02649362      32.87827607      50.00000000       10
Au      56.94684462      32.87827607      50.00000000       10
Au      59.86719563      32.87827607      50.00000000       10
Au      62.78754664      32.87827607      50.00000000       10
Au      65.70789764      32.87827607      50.00000000       10
Au      68.62824865      32.87827607      50.00000000       10
Au      71.54859965      32.87827607      50.00000000       10
Au      74.46895066      32.87827607      50.00000000       10
Au      77.38930167      32.87827607      50.00000000       10
Au      80.30965267      32.87827607      50.00000000       10
Au      83.23000368      32.87827607      50.00000000       10
Au      86.15035469      32.87827607      50.00000000       10
Au      89.07070569      32.87827607      50.00000000       10
Au      91.99105670      32.87827607      50.00000000       10
Au      94.91140770      32.87827607      50.00000000       10
Au      97.83175871      32.87827607      50.00000000       10
Au     100.75210972      32.87827607      50.00000000       10
Au       0.00000000      35.40737423      50.00000000       10
Au       2.92035101      35.40737423      50.00000000       10
Au       5.84070201      35.40737423      50.00000000       10
Au       8.76105302      35.40737423      50.00000000       10
Au      11.68140403      35.40737423      50.00000000       10
Au      14.60175503      35.40737423      50.00000000       10
Au      17.52210604      35.40737423      50.00000000       10
Au      20.44245704      35.40737423      50.00000000       10
Au      23.36280805      35.40737423      50.00000000       10
Au      26.28315906      35.40737423      50.00000000       10
Au      29.20351006      35.40737423      50.00000000       10
Au      32.12386107      35.40737423      50.00000000       10
Au      35.04421208      35.40737423      50.00000000       10
Au      37.96456308      35.40737423      50.00000000       10
Au      40.88491409      35.40737423      50.00000000       10
Au      43.80526509      35.40737423      50.00000000       10
Au      46.72561610      35.40737423      50.00000000       10
Au      49.64596711      35.40737423      50.00000000       10
Au      52.56631811      35.40737423      50.00000000       10
Au      55.48666912      35.40737423      50.00000000       10
Au      58.40702013      35.40737423      50.00000000       10
Au      61.32737113      35.40737423      50.00000000       10
Au      64.24772214      35.40737423      50.00000000       10
Au      67.16807314      35.40737423      50.00000000       10
Au      70.08842415      35.40737423      50.00000000       10
Au      73.00877516      35.40737423      50.00000000       10
Au      75.92912616      35.40737423      50.00000000       10
Au      78.84947717      35.40737423      50.00000000       10
Au      81.76982818      35.40737423      50.00000000       10
Au      84.69017918      35.40737423      50.00000000       10
Au      87.61053019      35.40737423      50.00000000       10
Au      90.53088120      35.40737423      50.00000000       10
Au      93.45123220      35.40737423      50.00000000       10
Au      96.37158321      35.40737423      50.00000000       10
Au      99.29193421      35.40737423      50.00000000       10
Au       1.46017550      37.93647239      50.00000000       10
Au       4.38052651      37.93647239      50.00000000       10
Au       7.30087752      37.93647239      50.00000000       10
Au      10.22122852      37.93647239      50.00000000       10
Au      13.14157953      37.93647239      50.00000000       10
Au      16.06193053      37.93647239      50.00000000       10
Au      18.98228154      37.93647239      50.00000000       10
Au      21.90263255      37.93647239      50.00000000       10
Au      24.82298355      37.93647239      50.00000000       10
Au      27.74333456      37.93647239      50.00000000       10
Au      30.66368557      37.93647239      50.00000000       10
Au      33.58403657      37.93647239      50.00000000       10
Au      36.50438758      37.93647239      50.00000000       10
Au      39.42473859      37.93647239      50.00000000       10
Au      42.34508959      37.93647239      50.00000000       10
Au      45.26544060      37.93647239      50.00000000       10
Au      48.18579160      37.93647239      50.00000000       10
Au      51.10614261      37.93647239      50.00000000       10
Au      54.02649362      37.93647239      50.00000000       10
Au      56.94684462      37.93647239      50.00000000       10
Au      59.86719563      37.93647239      50.00000000       10
Au      62.78754664      37.93647239      50.00000000       10
Au      65.70789764      37.93647239      50.00000000       10
Au      68.62824865      37.93647239      50.00000000       10
Au      71.54859965      37.93647239      50.00000000       10
Au      74.46895066      37.93647239      50.00000000       10
Au      77.38930167      37.93647239      50.00000000       10
Au      80.30965267      37.93647239      50.00000000       10
Au      83.23000368      37.93647239      50.00000000       10
Au      86.15035469      37.93647239      50.00000000       10
Au      89.07070569      37.93647239      50.00000000       10
Au      91.99105670      37.93647239      50.00000000       10
Au      94.91140770      37.93647239      50.00000000       10
Au      97.83175871      37.93647239      50.00000000       10
Au     100.75210972      37.93647239      50.00000000       10
Au       0.00000000      40.46557055      50.00000000       10
Au       2.92035101      40.46557055      50.00000000       10
Au       5.84070201      40.46557055      50.00000000       10
Au       8.76105302      40.46557055      50.00000000       10
Au      11.68140403      40.46557055      50.00000000       10
Au      14.60175503      40.46557055      50.00000000       10
Au      17.52210604      40.46557055      50.00000000       10
Au      20.44245704      40.46557055      50.00000000       10
Au      23.36280805      40.46557055      50.00000000       10
Au      26.28315906      40.46557055      50.00000000       10
Au      29.20351006      40.46557055      50.00000000       10
Au      32.12386107      40.46557055      50.00000000       10
Au      35.04421208      40.46557055      50.00000000       10
Au      37.96456308      40.46557055      50.00000000       10
Au      40.88491409      40.46557055      50.00000000       10
Au      43.80526509      40.46557055      50.00000000       10
Au      46.72561610      40.46557055      50.00000000       10
Au      49.64596711      40.46557055      50.00000000       10
Au      52.56631811      40.46557055      50.00000000       10
Au      55.48666912      40.46557055      50.00000000       10
Au      58.40702013      40.46557055      50.00000000       10
Au      61.32737113      40.46557055      50.00000000       10
Au      64.24772214      40.46557055      50.00000000       10
Au      67.16807314      40.46557055      50.00000000       10
Au      70.08842415      40.46557055      50.00000000       10
Au      73.00877516      40.46557055      50.00000000       10
Au      75.92912616      40.46557055      50.00000000       10
Au      78.84947717      40.46557055      50.00000000       10
Au      81.76982818      40.46557055      50.00000000       10
Au      84.69017918      40.46557055      50.00000000       10
Au      87.61053019      40.46557055      50.00000000       10
Au      90.53088120      40.46557055      50.00000000       10
Au      93.45123220      40.46557055      50.00000000       10
Au      96.37158321      40.46557055      50.00000000       10
Au      99.29193421      40.46557055      50.00000000       10
Au       1.46017550      42.99466871      50.00000000       10
Au       4.38052651      42.99466871      50.00000000       10
Au       7.30087752      42.99466871      50.00000000       10
Au      10.22122852      42.99466871      50.00000000       10
Au      13.14157953      42.99466871      50.00000000       10
Au      16.06193053      42.99466871      50.00000000       10
Au      18.98228154      42.99466871      50.00000000       10
Au      21.90263255      42.99466871      50.00000000       10
Au      24.82298355      42.99466871      50.00000000       10
Au      27.74333456      42.99466871      50.00000000       10
Au      30.66368557      42.99466871      50.00000000       10
Au      33.58403657      42.99466871      50.00000000       10
Au      36.50438758      42.99466871      50.00000000       10
Au      39.42473859      42.99466871      50.00000000       10
Au      42.34508959      42.99466871      50.00000000       10
Au      45.26544060      42.99466871      50.00000000       10
Au      48.18579160      42.99466871      50.00000000       10
Au      51.10614261      42.99466871      50.00000000       10
Au      54.02649362      42.99466871      50.00000000       10
Au      56.94684462      42.99466871      50.00000000       10
Au      59.86719563      42.99466871      50.00000000       10
Au      62.78754664      42.99466871      50.00000000       10
Au      65.70789764      42.99466871      50.00000000       10
Au      68.62824865      42.99466871      50.00000000       10
Au      71.54859965      42.99466871      50.00000000       10
Au      74.46895066      42.99466871      50.00000000       10
Au      77.38930167      42.99466871      50.00000000       10
Au      80.30965267      42.99466871      50.00000000       10
Au      83.23000368      42.99466871      50.00000000       10
Au      86.15035469      42.99466871      50.00000000       10
Au      89.07070569      42.99466871      50.00000000       10
Au      91.99105670      42.99466871      50.00000000       10
Au      94.91140770      42.99466871      50.00000000       10
Au      97.83175871      42.99466871      50.00000000       10
Au     100.75210972      42.99466871      50.00000000       10
Au       0.00000000      45.52376687      50.00000000       10
Au       2.92035101      45.52376687      50.00000000       10
Au       5.84070201      45.52376687      50.00000000       10
Au       8.76105302      45.52376687      50.00000000       10
Au      11.68140403      45.52376687      50.00000000       10
Au      14.60175503      45.52376687      50.00000000       10
Au      17.52210604      45.52376687      50.00000000       10
Au      20.44245704      45.52376687      50.00000000       10
Au      23.36280805      45.52376687      50.00000000       10
Au      26.28315906      45.52376687      50.00000000       10
Au      29.20351006      45.52376687      50.00000000       10
Au      32.12386107      45.52376687      50.00000000       10
Au      35.04421208      45.52376687      50.00000000       10
Au      37.96456308      45.52376687      50.00000000       10
Au      40.88491409      45.52376687      50.00000000       10
Au      43.80526509      45.52376687      50.00000000       10
Au      46.72561610      45.52376687      50.00000000       10
Au      49.64596711      45.52376687      50.00000000       10
Au      52.56631811      45.52376687      50.00000000       10
Au      55.48666912      45.52376687      50.00000000       10
Au      58.40702013      45.52376687      50.00000000       10
Au      61.32737113      45.52376687      50.00000000       10
Au      64.24772214      45.52376687      50.00000000       10
Au      67.16807314      45.52376687      50.00000000       10
Au      70.08842415      45.52376687      50.00000000       10
Au      73.00877516      45.52376687      50.00000000       10
Au      75.92912616      45.52376687      50.00000000       10
Au      78.84947717      45.52376687      50.00000000       10
Au      81.76982818      45.52376687      50.00000000       10
Au      84.69017918      45.52376687      50.00000000       10
Au      87.61053019      45.52376687      50.00000000       10
Au      90.53088120      45.52376687      50.00000000       10
Au      93.45123220      45.52376687      50.00000000       10
Au      96.37158321      45.52376687      50.00000000       10
Au      99.29193421      45.52376687      50.00000000       10
Au       1.46017550      48.05286503      50.00000000       10
Au       4.38052651      48.05286503      50.00000000       10
Au       7.30087752      48.05286503      50.00000000       10
Au      10.22122852      48.05286503      50.00000000       10
Au      13.14157953      48.05286503      50.00000000       10
Au      16.06193053      48.05286503      50.00000000       10
Au      18.98228154      48.05286503      50.00000000       10
Au      21.90263255      48.05286503      50.00000000       10
Au      24.82298355      48.05286503      50.00000000       10
Au      27.74333456      48.05286503      50.00000000       10
Au      30.66368557      48.05286503      50.00000000       10
Au      33.58403657      48.05286503      50.00000000       10
Au      36.50438758      48.05286503      50.00000000       10
Au      39.42473859      48.05286503      50.00000000       10
Au      42.34508959      48.05286503      50.00000000       10
Au      45.26544060      48.05286503      50.00000000       10
Au      48.18579160      48.05286503      50.00000000       10
Au      51.10614261      48.05286503      50.00000000       10
Au      54.02649362      48.05286503      50.00000000       10
Au      56.94684462      48.05286503      50.00000000       10
Au      59.86719563      48.05286503      50.00000000       10
Au      62.78754664      48.05286503      50.00000000       10
Au      65.70789764      48.05286503      50.00000000       10
Au      68.62824865      48.05286503      50.00000000       10
Au      71.54859965      48.05286503      50.00000000       10
Au      74.46895066      48.05286503      50.00000000       10
Au      77.38930167      48.05286503      50.00000000       10
Au      80.30965267      48.05286503      50.00000000       10
Au      83.23000368      48.05286503      50.00000000       10
Au      86.15035469      48.05286503      50.00000000       10
Au      89.07070569      48.05286503      50.00000000       10
Au      91.99105670      48.05286503      50.00000000       10
Au      94.91140770      48.05286503      50.00000000       10
Au      97.83175871      48.05286503      50.00000000       10
Au     100.75210972      48.05286503      50.00000000       10
Au       1.46017550       0.84303272      52.38445661        9
Au       4.38052651       0.84303272      52.38445661        9
Au       7.30087752       0.84303272      52.38445661        9
Au      10.22122852       0.84303272      52.38445661        9
Au      13.14157953       0.84303272      52.38445661        9
Au      16.06193053       0.84303272      52.38445661        9
Au      18.98228154       0.84303272      52.38445661        9
Au      21.90263255       0.84303272      52.38445661        9
Au      24.82298355       0.84303272      52.38445661        9
Au      27.74333456       0.84303272      52.38445661        9
Au      30.66368557       0.84303272      52.38445661        9
Au      33.58403657       0.84303272      52.38445661        9
Au      36.50438758       0.84303272      52.38445661        9
Au      39.42473859       0.84303272      52.38445661        9
Au      42.34508959       0.84303272      52.38445661        9
Au      45.26544060       0.84303272      52.38445661        9
Au      48.18579160       0.84303272      52.38445661        9
Au      51.10614261       0.84303272      52.38445661        9
Au      54.02649362       0.84303272      52.38445661        9
Au      56.94684462       0.84303272      52.38445661        9
Au      59.86719563       0.84303272      52.38445661        9
Au      62.78754664       0.84303272      52.38445661        9
Au      65.70789764       0.84303272      52.38445661        9
Au      68.62824865       0.84303272      52.38445661        9
Au      71.54859965       0.84303272      52.38445661        9
Au      74.46895066       0.84303272      52.38445661        9
Au      77.38930167       0.84303272      52.38445661        9
Au      80.30965267       0.84303272      52.38445661        9
Au      83.23000368       0.84303272      52.38445661        9
Au      86.15035469       0.84303272      52.38445661        9
Au      89.07070569       0.84303272      52.38445661        9
Au      91.99105670       0.84303272      52.38445661        9
Au      94.91140770       0.84303272      52.38445661        9
Au      97.83175871       0.84303272      52.38445661        9
Au     100.75210972       0.84303272      52.38445661        9
Au       0.00000000       3.37213088      52.38445661        9
Au       2.92035101       3.37213088      52.38445661        9
Au       5.84070201       3.37213088      52.38445661        9
Au       8.76105302       3.37213088      52.38445661        9
Au      11.68140403       3.37213088      52.38445661        9
Au      14.60175503       3.37213088      52.38445661        9
Au      17.52210604       3.37213088      52.38445661        9
Au      20.44245704       3.37213088      52.38445661        9
Au      23.36280805       3.37213088      52.38445661        9
Au      26.28315906       3.37213088      52.38445661        9
Au      29.20351006       3.37213088      52.38445661        9
Au      32.12386107       3.37213088      52.38445661        9
Au      35.04421208       3.37213088      52.38445661        9
Au      37.96456308       3.37213088      52.38445661        9
Au      40.88491409       3.37213088      52.38445661        9
Au      43.80526509       3.37213088      52.38445661        9
Au      46.72561610       3.37213088      52.38445661        9
Au      49.64596711       3.37213088      52.38445661        9
Au      52.56631811       3.37213088      52.38445661        9
Au      55.48666912       3.37213088      52.38445661        9
Au      58.40702013       3.37213088      52.38445661        9
Au      61.32737113       3.37213088      52.38445661        9
Au      64.24772214       3.37213088      52.38445661        9
Au      67.16807314       3.37213088      52.38445661        9
Au      70.08842415       3.37213088      52.38445661        9
Au      73.00877516       3.37213088      52.38445661        9
Au      75.92912616       3.37213088      52.38445661        9
Au      78.84947717       3.37213088      52.38445661        9
Au      81.76982818       3.37213088      52.38445661        9
Au      84.69017918       3.37213088      52.38445661        9
Au      87.61053019       3.37213088      52.38445661        9
Au      90.53088120       3.37213088      52.38445661        9
Au      93.45123220       3.37213088      52.38445661        9
Au      96.37158321       3.37213088      52.38445661        9
Au      99.29193421       3.37213088      52.38445661        9
Au       1.46017550       5.90122904      52.38445661        9
Au       4.38052651       5.90122904      52.38445661        9
Au       7.30087752       5.90122904      52.38445661        9
Au      10.22122852       5.90122904      52.38445661        9
Au      13.14157953       5.90122904      52.38445661        9
Au      16.06193053       5.90122904      52.38445661        9
Au      18.98228154       5.90122904      52.38445661        9
Au      21.90263255       5.90122904      52.38445661        9
Au      24.82298355       5.90122904      52.38445661        9
Au      27.74333456       5.90122904      52.38445661        9
Au      30.66368557       5.90122904      52.38445661        9
Au      33.58403657       5.90122904      52.38445661        9
Au      36.50438758       5.90122904      52.38445661        9
Au      39.42473859       5.90122904      52.38445661        9
Au      42.34508959       5.90122904      52.38445661        9
Au      45.26544060       5.90122904      52.38445661        9
Au      48.18579160       5.90122904      52.38445661        9
Au      51.10614261       5.90122904      52.38445661        9
Au      54.02649362       5.90122904      52.38445661        9
Au      56.94684462       5.90122904      52.38445661        9
Au      59.86719563       5.90122904      52.38445661        9
Au      62.78754664       5.90122904      52.38445661        9
Au      65.70789764       5.90122904      52.38445661        9
Au      68.62824865       5.90122904      52.38445661        9
Au      71.54859965       5.90122904      52.38445661        9
Au      74.46895066       5.90122904      52.38445661        9
Au      77.38930167       5.90122904      52.38445661        9
Au      80.30965267       5.90122904      52.38445661        9
Au      83.23000368       5.90122904      52.38445661        9
Au      86.15035469       5.90122904      52.38445661        9
Au      89.07070569       5.90122904      52.38445661        9
Au      91.99105670       5.90122904      52.38445661        9
Au      94.91140770       5.90122904      52.38445661        9
Au      97.83175871       5.90122904      52.38445661        9
Au     100.75210972       5.90122904      52.38445661        9
Au       0.00000000       8.43032720      52.38445661        9
Au       2.92035101       8.43032720      52.38445661        9
Au       5.84070201       8.43032720      52.38445661        9
Au       8.76105302       8.43032720      52.38445661        9
Au      11.68140403       8.43032720      52.38445661        9
Au      14.60175503       8.43032720      52.38445661        9
Au      17.52210604       8.43032720      52.38445661        9
Au      20.44245704       8.43032720      52.38445661        9
Au      23.36280805       8.43032720      52.38445661        9
Au      26.28315906       8.43032720      52.38445661        9
Au      29.20351006       8.43032720      52.38445661        9
Au      32.12386107       8.43032720      52.38445661        9
Au      35.04421208       8.43032720      52.38445661        9
Au      37.96456308       8.43032720      52.38445661        9
Au      40.88491409       8.43032720      52.38445661        9
Au      43.80526509       8.43032720      52.38445661        9
Au      46.72561610       8.43032720      52.38445661        9
Au      49.64596711       8.43032720      52.38445661        9
Au      52.56631811       8.43032720      52.38445661        9
Au      55.48666912       8.43032720      52.38445661        9
Au      58.40702013       8.43032720      52.38445661        9
Au      61.32737113       8.43032720      52.38445661        9
Au      64.24772214       8.43032720      52.38445661        9
Au      67.16807314       8.43032720      52.38445661        9
Au      70.08842415       8.43032720      52.38445661        9
Au      73.00877516       8.43032720      52.38445661        9
Au      75.92912616       8.43032720      52.38445661        9
Au      78.84947717       8.43032720      52.38445661        9
Au      81.76982818       8.43032720      52.38445661        9
Au      84.69017918       8.43032720      52.38445661        9
Au      87.61053019       8.43032720      52.38445661        9
Au      90.53088120       8.43032720      52.38445661        9
Au      93.45123220       8.43032720      52.38445661        9
Au      96.37158321       8.43032720      52.38445661        9
Au      99.29193421       8.43032720      52.38445661        9
Au       1.46017550      10.95942536      52.38445661        9
Au       4.38052651      10.95942536      52.38445661        9
Au       7.30087752      10.95942536      52.38445661        9
Au      10.22122852      10.95942536      52.38445661        9
Au      13.14157953      10.95942536      52.38445661        9
Au      16.06193053      10.95942536      52.38445661        9
Au      18.98228154      10.95942536      52.38445661        9
Au      21.90263255      10.95942536      52.38445661        9
Au      24.82298355      10.95942536      52.38445661        9
Au      27.74333456      10.95942536      52.38445661        9
Au      30.66368557      10.95942536      52.38445661        9
Au      33.58403657      10.95942536      52.38445661        9
Au      36.50438758      10.95942536      52.38445661        9
Au      39.42473859      10.95942536      52.38445661        9
Au      42.34508959      10.95942536      52.38445661        9
Au      45.26544060      10.95942536      52.38445661        9
Au      48.18579160      10.95942536      52.38445661        9
Au      51.10614261      10.95942536      52.38445661        9
Au      54.02649362      10.95942536      52.38445661        9
Au      56.94684462      10.95942536      52.38445661        9
Au      59.86719563      10.95942536      52.38445661        9
Au      62.78754664      10.95942536      52.38445661        9
Au      65.70789764      10.95942536      52.38445661        9
Au      68.62824865      10.95942536      52.38445661        9
Au      71.54859965      10.95942536      52.38445661        9
Au      74.46895066      10.95942536      52.38445661        9
Au      77.38930167      10.95942536      52.38445661        9
Au      80.30965267      10.95942536      52.38445661        9
Au      83.23000368      10.95942536      52.38445661        9
Au      86.15035469      10.95942536      52.38445661        9
Au      89.07070569      10.95942536      52.38445661        9
Au      91.99105670      10.95942536      52.38445661        9
Au      94.91140770      10.95942536      52.38445661        9
Au      97.83175871      10.95942536      52.38445661        9
Au     100.75210972      10.95942536      52.38445661        9
Au       0.00000000      13.48852352      52.38445661        9
Au       2.92035101      13.48852352      52.38445661        9
Au       5.84070201      13.48852352      52.38445661        9
Au       8.76105302      13.48852352      52.38445661        9
Au      11.68140403      13.48852352      52.38445661        9
Au      14.60175503      13.48852352      52.38445661        9
Au      17.52210604      13.48852352      52.38445661        9
Au      20.44245704      13.48852352      52.38445661        9
Au      23.36280805      13.48852352      52.38445661        9
Au      26.28315906      13.48852352      52.38445661        9
Au      29.20351006      13.48852352      52.38445661        9
Au      32.12386107      13.48852352      52.38445661        9
Au      35.04421208      13.48852352      52.38445661        9
Au      37.96456308      13.48852352      52.38445661        9
Au      40.88491409      13.48852352      52.38445661        9
Au      43.80526509      13.48852352      52.38445661        9
Au      46.72561610      13.48852352      52.38445661        9
Au      49.64596711      13.48852352      52.38445661        9
Au      52.56631811      13.48852352      52.38445661        9
Au      55.48666912      13.48852352      52.38445661        9
Au      58.40702013      13.48852352      52.38445661        9
Au      61.32737113      13.48852352      52.38445661        9
Au      64.24772214      13.48852352      52.38445661        9
Au      67.16807314      13.48852352      52.38445661        9
Au      70.08842415      13.48852352      52.38445661        9
Au      73.00877516      13.48852352      52.38445661        9
Au      75.92912616      13.48852352      52.38445661        9
Au      78.84947717      13.48852352      52.38445661        9
Au      81.76982818      13.48852352      52.38445661        9
Au      84.69017918      13.48852352      52.38445661        9
Au      87.61053019      13.48852352      52.38445661        9
Au      90.53088120      13.48852352      52.38445661        9
Au      93.45123220      13.48852352      52.38445661        9
Au      96.37158321      13.48852352      52.38445661        9
Au      99.29193421      13.48852352      52.38445661        9
Au       1.46017550      16.01762168      52.38445661        9
Au       4.38052651      16.01762168      52.38445661        9
Au       7.30087752      16.01762168      52.38445661        9
Au      10.22122852      16.01762168      52.38445661        9
Au      13.14157953      16.01762168      52.38445661        9
Au      16.06193053      16.01762168      52.38445661        9
Au      18.98228154      16.01762168      52.38445661        9
Au      21.90263255      16.01762168      52.38445661        9
Au      24.82298355      16.01762168      52.38445661        9
Au      27.74333456      16.01762168      52.38445661        9
Au      30.66368557      16.01762168      52.38445661        9
Au      33.58403657      16.01762168      52.38445661        9
Au      36.50438758      16.01762168      52.38445661        9
Au      39.42473859      16.01762168      52.38445661        9
Au      42.34508959      16.01762168      52.38445661        9
Au      45.26544060      16.01762168      52.38445661        9
Au      48.18579160      16.01762168      52.38445661        9
Au      51.10614261      16.01762168      52.38445661        9
Au      54.02649362      16.01762168      52.38445661        9
Au      56.94684462      16.01762168      52.38445661        9
Au      59.86719563      16.01762168      52.38445661        9
Au      62.78754664      16.01762168      52.38445661        9
Au      65.70789764      16.01762168      52.38445661        9
Au      68.62824865      16.01762168      52.38445661        9
Au      71.54859965      16.01762168      52.38445661        9
Au      74.46895066      16.01762168      52.38445661        9
Au      77.38930167      16.01762168      52.38445661        9
Au      80.30965267      16.01762168      52.38445661        9
Au      83.23000368      16.01762168      52.38445661        9
Au      86.15035469      16.01762168      52.38445661        9
Au      89.07070569      16.01762168      52.38445661        9
Au      91.99105670      16.01762168      52.38445661        9
Au      94.91140770      16.01762168      52.38445661        9
Au      97.83175871      16.01762168      52.38445661        9
Au     100.75210972      16.01762168      52.38445661        9
Au       0.00000000      18.54671984      52.38445661        9
Au       2.92035101      18.54671984      52.38445661        9
Au       5.84070201      18.54671984      52.38445661        9
Au       8.76105302      18.54671984      52.38445661        9
Au      11.68140403      18.54671984      52.38445661        9
Au      14.60175503      18.54671984      52.38445661        9
Au      17.52210604      18.54671984      52.38445661        9
Au      20.44245704      18.54671984      52.38445661        9
Au      23.36280805      18.54671984      52.38445661        9
Au      26.28315906      18.54671984      52.38445661        9
Au      29.20351006      18.54671984      52.38445661        9
Au      32.12386107      18.54671984      52.38445661        9
Au      35.04421208      18.54671984      52.38445661        9
Au      37.96456308      18.54671984      52.38445661        9
Au      40.88491409      18.54671984      52.38445661        9
Au      43.80526509      18.54671984      52.38445661        9
Au      46.72561610      18.54671984      52.38445661        9
Au      49.64596711      18.54671984      52.38445661        9
Au      52.56631811      18.54671984      52.38445661        9
Au      55.48666912      18.54671984      52.38445661        9
Au      58.40702013      18.54671984      52.38445661        9
Au      61.32737113      18.54671984      52.38445661        9
Au      64.24772214      18.54671984      52.38445661        9
Au      67.16807314      18.54671984      52.38445661        9
Au      70.08842415      18.54671984      52.38445661        9
Au      73.00877516      18.54671984      52.38445661        9
Au      75.92912616      18.54671984      52.38445661        9
Au      78.84947717      18.54671984      52.38445661        9
Au      81.76982818      18.54671984      52.38445661        9
Au      84.69017918      18.54671984      52.38445661        9
Au      87.61053019      18.54671984      52.38445661        9
Au      90.53088120      18.54671984      52.38445661        9
Au      93.45123220      18.54671984      52.38445661        9
Au      96.37158321      18.54671984      52.38445661        9
Au      99.29193421      18.54671984      52.38445661        9
Au       1.46017550      21.07581800      52.38445661        9
Au       4.38052651      21.07581800      52.38445661        9
Au       7.30087752      21.07581800      52.38445661        9
Au      10.22122852      21.07581800      52.38445661        9
Au      13.14157953      21.07581800      52.38445661        9
Au      16.06193053      21.07581800      52.38445661        9
Au      18.98228154      21.07581800      52.38445661        9
Au      21.90263255      21.07581800      52.38445661        9
Au      24.82298355      21.07581800      52.38445661        9
Au      27.74333456      21.07581800      52.38445661        9
Au      30.66368557      21.07581800      52.38445661        9
Au      33.58403657      21.07581800      52.38445661        9
Au      36.50438758      21.07581800      52.38445661        9
Au      39.42473859      21.07581800      52.38445661        9
Au      42.34508959      21.07581800      52.38445661        9
Au      45.26544060      21.07581800      52.38445661        9
Au      48.18579160      21.07581800      52.38445661        9
Au      51.10614261      21.07581800      52.38445661        9
Au      54.02649362      21.07581800      52.38445661        9
Au      56.94684462      21.07581800      52.38445661        9
Au      59.86719563      21.07581800      52.38445661        9
Au      62.78754664      21.07581800      52.38445661        9
Au      65.70789764      21.07581800      52.38445661        9
Au      68.62824865      21.07581800      52.38445661        9
Au      71.54859965      21.07581800      52.38445661        9
Au      74.46895066      21.07581800      52.38445661        9
Au      77.38930167      21.07581800      52.38445661        9
Au      80.30965267      21.07581800      52.38445661        9
Au      83.23000368      21.07581800      52.38445661        9
Au      86.15035469      21.07581800      52.38445661        9
Au      89.07070569      21.07581800      52.38445661        9
Au      91.99105670      21.07581800      52.38445661        9
Au      94.91140770      21.07581800      52.38445661        9
Au      97.83175871      21.07581800      52.38445661        9
Au     100.75210972      21.07581800      52.38445661        9
Au       0.00000000      23.60491615      52.38445661        9
Au       2.92035101      23.60491615      52.38445661        9
Au       5.84070201      23.60491615      52.38445661        9
Au       8.76105302      23.60491615      52.38445661        9
Au      11.68140403      23.60491615      52.38445661        9
Au      14.60175503      23.60491615      52.38445661        9
Au      17.52210604      23.60491615      52.38445661        9
Au      20.44245704      23.60491615      52.38445661        9
Au      23.36280805      23.60491615      52.38445661        9
Au      26.28315906      23.60491615      52.38445661        9
Au      29.20351006      23.60491615      52.38445661        9
Au      32.12386107      23.60491615      52.38445661        9
Au      35.04421208      23.60491615      52.38445661        9
Au      37.96456308      23.60491615      52.38445661        9
Au      40.88491409      23.60491615      52.38445661        9
Au      43.80526509      23.60491615      52.38445661        9
Au      46.72561610      23.60491615      52.38445661        9
Au      49.64596711      23.60491615      52.38445661        9
Au      52.56631811      23.60491615      52.38445661        9
Au      55.48666912      23.60491615      52.38445661        9
Au      58.40702013      23.60491615      52.38445661        9
Au      61.32737113      23.60491615      52.38445661        9
Au      64.24772214      23.60491615      52.38445661        9
Au      67.16807314      23.60491615      52.38445661        9
Au      70.08842415      23.60491615      52.38445661        9
Au      73.00877516      23.60491615      52.38445661        9
Au      75.92912616      23.60491615      52.38445661        9
Au      78.84947717      23.60491615      52.38445661        9
Au      81.76982818      23.60491615      52.38445661        9
Au      84.69017918      23.60491615      52.38445661        9
Au      87.61053019      23.60491615      52.38445661        9
Au      90.53088120      23.60491615      52.38445661        9
Au      93.45123220      23.60491615      52.38445661        9
Au      96.37158321      23.60491615      52.38445661        9
Au      99.29193421      23.60491615      52.38445661        9
Au       1.46017550      26.13401431      52.38445661        9
Au       4.38052651      26.13401431      52.38445661        9
Au       7.30087752      26.13401431      52.38445661        9
Au      10.22122852      26.13401431      52.38445661        9
Au      13.14157953      26.13401431      52.38445661        9
Au      16.06193053      26.13401431      52.38445661        9
Au      18.98228154      26.13401431      52.38445661        9
Au      21.90263255      26.13401431      52.38445661        9
Au      24.82298355      26.13401431      52.38445661        9
Au      27.74333456      26.13401431      52.38445661        9
Au      30.66368557      26.13401431      52.38445661        9
Au      33.58403657      26.13401431      52.38445661        9
Au      36.50438758      26.13401431      52.38445661        9
Au      39.42473859      26.13401431      52.38445661        9
Au      42.34508959      26.13401431      52.38445661        9
Au      45.26544060      26.13401431      52.38445661        9
Au      48.18579160      26.13401431      52.38445661        9
Au      51.10614261      26.13401431      52.38445661        9
Au      54.02649362      26.13401431      52.38445661        9
Au      56.94684462      26.13401431      52.38445661        9
Au      59.86719563      26.13401431      52.38445661        9
Au      62.78754664      26.13401431      52.38445661        9
Au      65.70789764      26.13401431      52.38445661        9
Au      68.62824865      26.13401431      52.38445661        9
Au      71.54859965      26.13401431      52.38445661        9
Au      74.46895066      26.13401431      52.38445661        9
Au      77.38930167      26.13401431      52.38445661        9
Au      80.30965267      26.13401431      52.38445661        9
Au      83.23000368      26.13401431      52.38445661        9
Au      86.15035469      26.13401431      52.38445661        9
Au      89.07070569      26.13401431      52.38445661        9
Au      91.99105670      26.13401431      52.38445661        9
Au      94.91140770      26.13401431      52.38445661        9
Au      97.83175871      26.13401431      52.38445661        9
Au     100.75210972      26.13401431      52.38445661        9
Au       0.00000000      28.66311247      52.38445661        9
Au       2.92035101      28.66311247      52.38445661        9
Au       5.84070201      28.66311247      52.38445661        9
Au       8.76105302      28.66311247      52.38445661        9
Au      11.68140403      28.66311247      52.38445661        9
Au      14.60175503      28.66311247      52.38445661        9
Au      17.52210604      28.66311247      52.38445661        9
Au      20.44245704      28.66311247      52.38445661        9
Au      23.36280805      28.66311247      52.38445661        9
Au      26.28315906      28.66311247      52.38445661        9
Au      29.20351006      28.66311247      52.38445661        9
Au      32.12386107      28.66311247      52.38445661        9
Au      35.04421208      28.66311247      52.38445661        9
Au      37.96456308      28.66311247      52.38445661        9
Au      40.88491409      28.66311247      52.38445661        9
Au      43.80526509      28.66311247      52.38445661        9
Au      46.72561610      28.66311247      52.38445661        9
Au      49.64596711      28.66311247      52.38445661        9
Au      52.56631811      28.66311247      52.38445661        9
Au      55.48666912      28.66311247      52.38445661        9
Au      58.40702013      28.66311247      52.38445661        9
Au      61.32737113      28.66311247      52.38445661        9
Au      64.24772214      28.66311247      52.38445661        9
Au      67.16807314      28.66311247      52.38445661        9
Au      70.08842415      28.66311247      52.38445661        9
Au      73.00877516      28.66311247      52.38445661        9
Au      75.92912616      28.66311247      52.38445661        9
Au      78.84947717      28.66311247      52.38445661        9
Au      81.76982818      28.66311247      52.38445661        9
Au      84.69017918      28.66311247      52.38445661        9
Au      87.61053019      28.66311247      52.38445661        9
Au      90.53088120      28.66311247      52.38445661        9
Au      93.45123220      28.66311247      52.38445661        9
Au      96.37158321      28.66311247      52.38445661        9
Au      99.29193421      28.66311247      52.38445661        9
Au       1.46017550      31.19221063      52.38445661        9
Au       4.38052651      31.19221063      52.38445661        9
Au       7.30087752      31.19221063      52.38445661        9
Au      10.22122852      31.19221063      52.38445661        9
Au      13.14157953      31.19221063      52.38445661        9
Au      16.06193053      31.19221063      52.38445661        9
Au      18.98228154      31.19221063      52.38445661        9
Au      21.90263255      31.19221063      52.38445661        9
Au      24.82298355      31.19221063      52.38445661        9
Au      27.74333456      31.19221063      52.38445661        9
Au      30.66368557      31.19221063      52.38445661        9
Au      33.58403657      31.19221063      52.38445661        9
Au      36.50438758      31.19221063      52.38445661        9
Au      39.42473859      31.19221063      52.38445661        9
Au      42.34508959      31.19221063      52.38445661        9
Au      45.26544060      31.19221063      52.38445661        9
Au      48.18579160      31.19221063      52.38445661        9
Au      51.10614261      31.19221063      52.38445661        9
Au      54.02649362      31.19221063      52.38445661        9
Au      56.94684462      31.19221063      52.38445661        9
Au      59.86719563      31.19221063      52.38445661        9
Au      62.78754664      31.19221063      52.38445661        9
Au      65.70789764      31.19221063      52.38445661        9
Au      68.62824865      31.19221063      52.38445661        9
Au      71.54859965      31.19221063      52.38445661        9
Au      74.46895066      31.19221063      52.38445661        9
Au      77.38930167      31.19221063      52.38445661        9
Au      80.30965267      31.19221063      52.38445661        9
Au      83.23000368      31.19221063      52.38445661        9
Au      86.15035469      31.19221063      52.38445661        9
Au      89.07070569      31.19221063      52.38445661        9
Au      91.99105670      31.19221063      52.38445661        9
Au      94.91140770      31.19221063      52.38445661        9
Au      97.83175871      31.19221063      52.38445661        9
Au     100.75210972      31.19221063      52.38445661        9
Au       0.00000000      33.72130879      52.38445661        9
Au       2.92035101      33.72130879      52.38445661        9
Au       5.84070201      33.72130879      52.38445661        9
Au       8.76105302      33.72130879      52.38445661        9
Au      11.68140403      33.72130879      52.38445661        9
Au      14.60175503      33.72130879      52.38445661        9
Au      17.52210604      33.72130879      52.38445661        9
Au      20.44245704      33.72130879      52.38445661        9
Au      23.36280805      33.72130879      52.38445661        9
Au      26.28315906      33.72130879      52.38445661        9
Au      29.20351006      33.72130879      52.38445661        9
Au      32.12386107      33.72130879      52.38445661        9
Au      35.04421208      33.72130879      52.38445661        9
Au      37.96456308      33.72130879      52.38445661        9
Au      40.88491409      33.72130879      52.38445661        9
Au      43.80526509      33.72130879      52.38445661        9
Au      46.72561610      33.72130879      52.38445661        9
Au      49.64596711      33.72130879      52.38445661        9
Au      52.56631811      33.72130879      52.38445661        9
Au      55.48666912      33.72130879      52.38445661        9
Au      58.40702013      33.72130879      52.38445661        9
Au      61.32737113      33.72130879      52.38445661        9
Au      64.24772214      33.72130879      52.38445661        9
Au      67.16807314      33.72130879      52.38445661        9
Au      70.08842415      33.72130879      52.38445661        9
Au      73.00877516      33.72130879      52.38445661        9
Au      75.92912616      33.72130879      52.38445661        9
Au      78.84947717      33.72130879      52.38445661        9
Au      81.76982818      33.72130879      52.38445661        9
Au      84.69017918      33.72130879      52.38445661        9
Au      87.61053019      33.72130879      52.38445661        9
Au      90.53088120      33.72130879      52.38445661        9
Au      93.45123220      33.72130879      52.38445661        9
Au      96.37158321      33.72130879      52.38445661        9
Au      99.29193421      33.72130879      52.38445661        9
Au       1.46017550      36.25040695      52.38445661        9
Au       4.38052651      36.25040695      52.38445661        9
Au       7.30087752      36.25040695      52.38445661        9
Au      10.22122852      36.25040695      52.38445661        9
Au      13.14157953      36.25040695      52.38445661        9
Au      16.06193053      36.25040695      52.38445661        9
Au      18.98228154      36.25040695      52.38445661        9
Au      21.90263255      36.25040695      52.38445661        9
Au      24.82298355      36.25040695      52.38445661        9
Au      27.74333456      36.25040695      52.38445661        9
Au      30.66368557      36.25040695      52.38445661        9
Au      33.58403657      36.25040695      52.38445661        9
Au      36.50438758      36.25040695      52.38445661        9
Au      39.42473859      36.25040695      52.38445661        9
Au      42.34508959      36.25040695      52.38445661        9
Au      45.26544060      36.25040695      52.38445661        9
Au      48.18579160      36.25040695      52.38445661        9
Au      51.10614261      36.25040695      52.38445661        9
Au      54.02649362      36.25040695      52.38445661        9
Au      56.94684462      36.25040695      52.38445661        9
Au      59.86719563      36.25040695      52.38445661        9
Au      62.78754664      36.25040695      52.38445661        9
Au      65.70789764      36.25040695      52.38445661        9
Au      68.62824865      36.25040695      52.38445661        9
Au      71.54859965      36.25040695      52.38445661        9
Au      74.46895066      36.25040695      52.38445661        9
Au      77.38930167      36.25040695      52.38445661        9
Au      80.30965267      36.25040695      52.38445661        9
Au      83.23000368      36.25040695      52.38445661        9
Au      86.15035469      36.25040695      52.38445661        9
Au      89.07070569      36.25040695      52.38445661        9
Au      91.99105670      36.25040695      52.38445661        9
Au      94.91140770      36.25040695      52.38445661        9
Au      97.83175871      36.25040695      52.38445661        9
Au     100.75210972      36.25040695      52.38445661        9
Au       0.00000000      38.77950511      52.38445661        9
Au       2.92035101      38.77950511      52.38445661        9
Au       5.84070201      38.77950511      52.38445661        9
Au       8.76105302      38.77950511      52.38445661        9
Au      11.68140403      38.77950511      52.38445661        9
Au      14.60175503      38.77950511      52.38445661        9
Au      17.52210604      38.77950511      52.38445661        9
Au      20.44245704      38.77950511      52.38445661        9
Au      23.36280805      38.77950511      52.38445661        9
Au      26.28315906      38.77950511      52.38445661        9
Au      29.20351006      38.77950511      52.38445661        9
Au      32.12386107      38.77950511      52.38445661        9
Au      35.04421208      38.77950511      52.38445661        9
Au      37.96456308      38.77950511      52.38445661        9
Au      40.88491409      38.77950511      52.38445661        9
Au      43.80526509      38.77950511      52.38445661        9
Au      46.72561610      38.77950511      52.38445661        9
Au      49.64596711      38.77950511      52.38445661        9
Au      52.56631811      38.77950511      52.38445661        9
Au      55.48666912      38.77950511      52.38445661        9
Au      58.40702013      38.77950511      52.38445661        9
Au      61.32737113      38.77950511      52.38445661        9
Au      64.24772214      38.77950511      52.38445661        9
Au      67.16807314      38.77950511      52.38445661        9
Au      70.08842415      38.77950511      52.38445661        9
Au      73.00877516      38.77950511      52.38445661        9
Au      75.92912616      38.77950511      52.38445661        9
Au      78.84947717      38.77950511      52.38445661        9
Au      81.76982818      38.77950511      52.38445661        9
Au      84.69017918      38.77950511      52.38445661        9
Au      87.61053019      38.77950511      52.38445661        9
Au      90.53088120      38.77950511      52.38445661        9
Au      93.45123220      38.77950511      52.38445661        9
Au      96.37158321      38.77950511      52.38445661        9
Au      99.29193421      38.77950511      52.38445661        9
Au       1.46017550      41.30860327      52.38445661        9
Au       4.38052651      41.30860327      52.38445661        9
Au       7.30087752      41.30860327      52.38445661        9
Au      10.22122852      41.30860327      52.38445661        9
Au      13.14157953      41.30860327      52.38445661        9
Au      16.06193053      41.30860327      52.38445661        9
Au      18.98228154      41.30860327      52.38445661        9
Au      21.90263255      41.30860327      52.38445661        9
Au      24.82298355      41.30860327      52.38445661        9
Au      27.74333456      41.30860327      52.38445661        9
Au      30.66368557      41.30860327      52.38445661        9
Au      33.58403657      41.30860327      52.38445661        9
Au      36.50438758      41.30860327      52.38445661        9
Au      39.42473859      41.30860327      52.38445661        9
Au      42.34508959      41.30860327      52.38445661        9
Au      45.26544060      41.30860327      52.38445661        9
Au      48.18579160      41.30860327      52.38445661        9
Au      51.10614261      41.30860327      52.38445661        9
Au      54.02649362      41.30860327      52.38445661        9
Au      56.94684462      41.30860327      52.38445661        9
Au      59.86719563      41.30860327      52.38445661        9
Au      62.78754664      41.30860327      52.38445661        9
Au      65.70789764      41.30860327      52.38445661        9
Au      68.62824865      41.30860327      52.38445661        9
Au      71.54859965      41.30860327      52.38445661        9
Au      74.46895066      41.30860327      52.38445661        9
Au      77.38930167      41.30860327      52.38445661        9
Au      80.30965267      41.30860327      52.38445661        9
Au      83.23000368      41.30860327      52.38445661        9
Au      86.15035469      41.30860327      52.38445661        9
Au      89.07070569      41.30860327      52.38445661        9
Au      91.99105670      41.30860327      52.38445661        9
Au      94.91140770      41.30860327      52.38445661        9
Au      97.83175871      41.30860327      52.38445661        9
Au     100.75210972      41.30860327      52.38445661        9
Au       0.00000000      43.83770143      52.38445661        9
Au       2.92035101      43.83770143      52.38445661        9
Au       5.84070201      43.83770143      52.38445661        9
Au       8.76105302      43.83770143      52.38445661        9
Au      11.68140403      43.83770143      52.38445661        9
Au      14.60175503      43.83770143      52.38445661        9
Au      17.52210604      43.83770143      52.38445661        9
Au      20.44245704      43.83770143      52.38445661        9
Au      23.36280805      43.83770143      52.38445661        9
Au      26.28315906      43.83770143      52.38445661        9
Au      29.20351006      43.83770143      52.38445661        9
Au      32.12386107      43.83770143      52.38445661        9
Au      35.04421208      43.83770143      52.38445661        9
Au      37.96456308      43.83770143      52.38445661        9
Au      40.88491409      43.83770143      52.38445661        9
Au      43.80526509      43.83770143      52.38445661        9
Au      46.72561610      43.83770143      52.38445661        9
Au      49.64596711      43.83770143      52.38445661        9
Au      52.56631811      43.83770143      52.38445661        9
Au      55.48666912      43.83770143      52.38445661        9
Au      58.40702013      43.83770143      52.38445661        9
Au      61.32737113      43.83770143      52.38445661        9
Au      64.24772214      43.83770143      52.38445661        9
Au      67.16807314      43.83770143      52.38445661        9
Au      70.08842415      43.83770143      52.38445661        9
Au      73.00877516      43.83770143      52.38445661        9
Au      75.92912616      43.83770143      52.38445661        9
Au      78.84947717      43.83770143      52.38445661        9
Au      81.76982818      43.83770143      52.38445661        9
Au      84.69017918      43.83770143      52.38445661        9
Au      87.61053019      43.83770143      52.38445661        9
Au      90.53088120      43.83770143      52.38445661        9
Au      93.45123220      43.83770143      52.38445661        9
Au      96.37158321      43.83770143      52.38445661        9
Au      99.29193421      43.83770143      52.38445661        9
Au       1.46017550      46.36679959      52.38445661        9
Au       4.38052651      46.36679959      52.38445661        9
Au       7.30087752      46.36679959      52.38445661        9
Au      10.22122852      46.36679959      52.38445661        9
Au      13.14157953      46.36679959      52.38445661        9
Au      16.06193053      46.36679959      52.38445661        9
Au      18.98228154      46.36679959      52.38445661        9
Au      21.90263255      46.36679959      52.38445661        9
Au      24.82298355      46.36679959      52.38445661        9
Au      27.74333456      46.36679959      52.38445661        9
Au      30.66368557      46.36679959      52.38445661        9
Au      33.58403657      46.36679959      52.38445661        9
Au      36.50438758      46.36679959      52.38445661        9
Au      39.42473859      46.36679959      52.38445661        9
Au      42.34508959      46.36679959      52.38445661        9
Au      45.26544060      46.36679959      52.38445661        9
Au      48.18579160      46.36679959      52.38445661        9
Au      51.10614261      46.36679959      52.38445661        9
Au      54.02649362      46.36679959      52.38445661        9
Au      56.94684462      46.36679959      52.38445661        9
Au      59.86719563      46.36679959      52.38445661        9
Au      62.78754664      46.36679959      52.38445661        9
Au      65.70789764      46.36679959      52.38445661        9
Au      68.62824865      46.36679959      52.38445661        9
Au      71.54859965      46.36679959      52.38445661        9
Au      74.46895066      46.36679959      52.38445661        9
Au      77.38930167      46.36679959      52.38445661        9
Au      80.30965267      46.36679959      52.38445661        9
Au      83.23000368      46.36679959      52.38445661        9
Au      86.15035469      46.36679959      52.38445661        9
Au      89.07070569      46.36679959      52.38445661        9
Au      91.99105670      46.36679959      52.38445661        9
Au      94.91140770      46.36679959      52.38445661        9
Au      97.83175871      46.36679959      52.38445661        9
Au     100.75210972      46.36679959      52.38445661        9
Au       0.00000000      48.89589775      52.38445661        9
Au       2.92035101      48.89589775      52.38445661        9
Au       5.84070201      48.89589775      52.38445661        9
Au       8.76105302      48.89589775      52.38445661        9
Au      11.68140403      48.89589775      52.38445661        9
Au      14.60175503      48.89589775      52.38445661        9
Au      17.52210604      48.89589775      52.38445661        9
Au      20.44245704      48.89589775      52.38445661        9
Au      23.36280805      48.89589775      52.38445661        9
Au      26.28315906      48.89589775      52.38445661        9
Au      29.20351006      48.89589775      52.38445661        9
Au      32.12386107      48.89589775      52.38445661        9
Au      35.04421208      48.89589775      52.38445661        9
Au      37.96456308      48.89589775      52.38445661        9
Au      40.88491409      48.89589775      52.38445661        9
Au      43.80526509      48.89589775      52.38445661        9
Au      46.72561610      48.89589775      52.38445661        9
Au      49.64596711      48.89589775      52.38445661        9
Au      52.56631811      48.89589775      52.38445661        9
Au      55.48666912      48.89589775      52.38445661        9
Au      58.40702013      48.89589775      52.38445661        9
Au      61.32737113      48.89589775      52.38445661        9
Au      64.24772214      48.89589775      52.38445661        9
Au      67.16807314      48.89589775      52.38445661        9
Au      70.08842415      48.89589775      52.38445661        9
Au      73.00877516      48.89589775      52.38445661        9
Au      75.92912616      48.89589775      52.38445661        9
Au      78.84947717      48.89589775      52.38445661        9
Au      81.76982818      48.89589775      52.38445661        9
Au      84.69017918      48.89589775      52.38445661        9
Au      87.61053019      48.89589775      52.38445661        9
Au      90.53088120      48.89589775      52.38445661        9
Au      93.45123220      48.89589775      52.38445661        9
Au      96.37158321      48.89589775      52.38445661        9
Au      99.29193421      48.89589775      52.38445661        9
Au       0.00000000       1.68606544      54.76891322        8
Au       2.92035101       1.68606544      54.76891322        8
Au       5.84070201       1.68606544      54.76891322        8
Au       8.76105302       1.68606544      54.76891322        8
Au      11.68140403       1.68606544      54.76891322        8
Au      14.60175503       1.68606544      54.76891322        8
Au      17.52210604       1.68606544      54.76891322        8
Au      20.44245704       1.68606544      54.76891322        8
Au      23.36280805       1.68606544      54.76891322        8
Au      26.28315906       1.68606544      54.76891322        8
Au      29.20351006       1.68606544      54.76891322        8
Au      32.12386107       1.68606544      54.76891322        8
Au      35.04421208       1.68606544      54.76891322        8
Au      37.96456308       1.68606544      54.76891322        8
Au      40.88491409       1.68606544      54.76891322        8
Au      43.80526509       1.68606544      54.76891322        8
Au      46.72561610       1.68606544      54.76891322        8
Au      49.64596711       1.68606544      54.76891322        8
Au      52.56631811       1.68606544      54.76891322        8
Au      55.48666912       1.68606544      54.76891322        8
Au      58.40702013       1.68606544      54.76891322        8
Au      61.32737113       1.68606544      54.76891322        8
Au      64.24772214       1.68606544      54.76891322        8
Au      67.16807314       1.68606544      54.76891322        8
Au      70.08842415       1.68606544      54.76891322        8
Au      73.00877516       1.68606544      54.76891322        8
Au      75.92912616       1.68606544      54.76891322        8
Au      78.84947717       1.68606544      54.76891322        8
Au      81.76982818       1.68606544      54.76891322        8
Au      84.69017918       1.68606544      54.76891322        8
Au      87.61053019       1.68606544      54.76891322        8
Au      90.53088120       1.68606544      54.76891322        8
Au      93.45123220       1.68606544      54.76891322        8
Au      96.37158321       1.68606544      54.76891322        8
Au      99.29193421       1.68606544      54.76891322        8
Au       1.46017550       4.21516360      54.76891322        8
Au       4.38052651       4.21516360      54.76891322        8
Au       7.30087752       4.21516360      54.76891322        8
Au      10.22122852       4.21516360      54.76891322        8
Au      13.14157953       4.21516360      54.76891322        8
Au      16.06193053       4.21516360      54.76891322        8
Au      18.98228154       4.21516360      54.76891322        8
Au      21.90263255       4.21516360      54.76891322        8
Au      24.82298355       4.21516360      54.76891322        8
Au      27.74333456       4.21516360      54.76891322        8
Au      30.66368557       4.21516360      54.76891322        8
Au      33.58403657       4.21516360      54.76891322        8
Au      36.50438758       4.21516360      54.76891322        8
Au      39.42473859       4.21516360      54.76891322        8
Au      42.34508959       4.21516360      54.76891322        8
Au      45.26544060       4.21516360      54.76891322        8
Au      48.18579160       4.21516360      54.76891322        8
Au      51.10614261       4.21516360      54.76891322        8
Au      54.02649362       4.21516360      54.76891322        8
Au      56.94684462       4.21516360      54.76891322        8
Au      59.86719563       4.21516360      54.76891322        8
Au      62.78754664       4.21516360      54.76891322        8
Au      65.70789764       4.21516360      54.76891322        8
Au      68.62824865       4.21516360      54.76891322        8
Au      71.54859965       4.21516360      54.76891322        8
Au      74.46895066       4.21516360      54.76891322        8
Au      77.38930167       4.21516360      54.76891322        8
Au      80.30965267       4.21516360      54.76891322        8
Au      83.23000368       4.21516360      54.76891322        8
Au      86.15035469       4.21516360      54.76891322        8
Au      89.07070569       4.21516360      54.76891322        8
Au      91.99105670       4.21516360      54.76891322        8
Au      94.91140770       4.21516360      54.76891322        8
Au      97.83175871       4.21516360      54.76891322        8
Au     100.75210972       4.21516360      54.76891322        8
Au       0.00000000       6.74426176      54.76891322        8
Au       2.92035101       6.74426176      54.76891322        8
Au       5.84070201       6.74426176      54.76891322        8
Au       8.76105302       6.74426176      54.76891322        8
Au      11.68140403       6.74426176      54.76891322        8
Au      14.60175503       6.74426176      54.76891322        8
Au      17.52210604       6.74426176      54.76891322        8
Au      20.44245704       6.74426176      54.76891322        8
Au      23.36280805       6.74426176      54.76891322        8
Au      26.28315906       6.74426176      54.76891322        8
Au      29.20351006       6.74426176      54.76891322        8
Au      32.12386107       6.74426176      54.76891322        8
Au      35.04421208       6.74426176      54.76891322        8
Au      37.96456308       6.74426176      54.76891322        8
Au      40.88491409       6.74426176      54.76891322        8
Au      43.80526509       6.74426176      54.76891322        8
Au      46.72561610       6.74426176      54.76891322        8
Au      49.64596711       6.74426176      54.76891322        8
Au      52.56631811       6.74426176      54.76891322        8
Au      55.48666912       6.74426176      54.76891322        8
Au      58.40702013       6.74426176      54.76891322        8
Au      61.32737113       6.74426176      54.76891322        8
Au      64.24772214       6.74426176      54.76891322        8
Au      67.16807314       6.74426176      54.76891322        8
Au      70.08842415       6.74426176      54.76891322        8
Au      73.00877516       6.74426176      54.76891322        8
Au      75.92912616       6.74426176      54.76891322        8
Au      78.84947717       6.74426176      54.76891322        8
Au      81.76982818       6.74426176      54.76891322        8
Au      84.69017918       6.74426176      54.76891322        8
Au      87.61053019       6.74426176      54.76891322        8
Au      90.53088120       6.74426176      54.76891322        8
Au      93.45123220       6.74426176      54.76891322        8
Au      96.37158321       6.74426176      54.76891322        8
Au      99.29193421       6.74426176      54.76891322        8
Au       1.46017550       9.27335992      54.76891322        8
Au       4.38052651       9.27335992      54.76891322        8
Au       7.30087752       9.27335992      54.76891322        8
Au      10.22122852       9.27335992      54.76891322        8
Au      13.14157953       9.27335992      54.76891322        8
Au      16.06193053       9.27335992      54.76891322        8
Au      18.98228154       9.27335992      54.76891322        8
Au      21.90263255       9.27335992      54.76891322        8
Au      24.82298355       9.27335992      54.76891322        8
Au      27.74333456       9.27335992      54.76891322        8
Au      30.66368557       9.27335992      54.76891322        8
Au      33.58403657       9.27335992      54.76891322        8
Au      36.50438758       9.27335992      54.76891322        8
Au      39.42473859       9.27335992      54.76891322        8
Au      42.34508959       9.27335992      54.76891322        8
Au      45.26544060       9.27335992      54.76891322        8
Au      48.18579160       9.27335992      54.76891322        8
Au      51.10614261       9.27335992      54.76891322        8
Au      54.02649362       9.27335992      54.76891322        8
Au      56.94684462       9.27335992      54.76891322        8
Au      59.86719563       9.27335992      54.76891322        8
Au      62.78754664       9.27335992      54.76891322        8
Au      65.70789764       9.27335992      54.76891322        8
Au      68.62824865       9.27335992      54.76891322        8
Au      71.54859965       9.27335992      54.76891322        8
Au      74.46895066       9.27335992      54.76891322        8
Au      77.38930167       9.27335992      54.76891322        8
Au      80.30965267       9.27335992      54.76891322        8
Au      83.23000368       9.27335992      54.76891322        8
Au      86.15035469       9.27335992      54.76891322        8
Au      89.07070569       9.27335992      54.76891322        8
Au      91.99105670       9.27335992      54.76891322        8
Au      94.91140770       9.27335992      54.76891322        8
Au      97.83175871       9.27335992      54.76891322        8
Au     100.75210972       9.27335992      54.76891322        8
Au       0.00000000      11.80245808      54.76891322        8
Au       2.92035101      11.80245808      54.76891322        8
Au       5.84070201      11.80245808      54.76891322        8
Au       8.76105302      11.80245808      54.76891322        8
Au      11.68140403      11.80245808      54.76891322        8
Au      14.60175503      11.80245808      54.76891322        8
Au      17.52210604      11.80245808      54.76891322        8
Au      20.44245704      11.80245808      54.76891322        8
Au      23.36280805      11.80245808      54.76891322        8
Au      26.28315906      11.80245808      54.76891322        8
Au      29.20351006      11.80245808      54.76891322        8
Au      32.12386107      11.80245808      54.76891322        8
Au      35.04421208      11.80245808      54.76891322        8
Au      37.96456308      11.80245808      54.76891322        8
Au      40.88491409      11.80245808      54.76891322        8
Au      43.80526509      11.80245808      54.76891322        8
Au      46.72561610      11.80245808      54.76891322        8
Au      49.64596711      11.80245808      54.76891322        8
Au      52.56631811      11.80245808      54.76891322        8
Au      55.48666912      11.80245808      54.76891322        8
Au      58.40702013      11.80245808      54.76891322        8
Au      61.32737113      11.80245808      54.76891322        8
Au      64.24772214      11.80245808      54.76891322        8
Au      67.16807314      11.80245808      54.76891322        8
Au      70.08842415      11.80245808      54.76891322        8
Au      73.00877516      11.80245808      54.76891322        8
Au      75.92912616      11.80245808      54.76891322        8
Au      78.84947717      11.80245808      54.76891322        8
Au      81.76982818      11.80245808      54.76891322        8
Au      84.69017918      11.80245808      54.76891322        8
Au      87.61053019      11.80245808      54.76891322        8
Au      90.53088120      11.80245808      54.76891322        8
Au      93.45123220      11.80245808      54.76891322        8
Au      96.37158321      11.80245808      54.76891322        8
Au      99.29193421      11.80245808      54.76891322        8
Au       1.46017550      14.33155624      54.76891322        8
Au       4.38052651      14.33155624      54.76891322        8
Au       7.30087752      14.33155624      54.76891322        8
Au      10.22122852      14.33155624      54.76891322        8
Au      13.14157953      14.33155624      54.76891322        8
Au      16.06193053      14.33155624      54.76891322        8
Au      18.98228154      14.33155624      54.76891322        8
Au      21.90263255      14.33155624      54.76891322        8
Au      24.82298355      14.33155624      54.76891322        8
Au      27.74333456      14.33155624      54.76891322        8
Au      30.66368557      14.33155624      54.76891322        8
Au      33.58403657      14.33155624      54.76891322        8
Au      36.50438758      14.33155624      54.76891322        8
Au      39.42473859      14.33155624      54.76891322        8
Au      42.34508959      14.33155624      54.76891322        8
Au      45.26544060      14.33155624      54.76891322        8
Au      48.18579160      14.33155624      54.76891322        8
Au      51.10614261      14.33155624      54.76891322        8
Au      54.02649362      14.33155624      54.76891322        8
Au      56.94684462      14.33155624      54.76891322        8
Au      59.86719563      14.33155624      54.76891322        8
Au      62.78754664      14.33155624      54.76891322        8
Au      65.70789764      14.33155624      54.76891322        8
Au      68.62824865      14.33155624      54.76891322        8
Au      71.54859965      14.33155624      54.76891322        8
Au      74.46895066      14.33155624      54.76891322        8
Au      77.38930167      14.33155624      54.76891322        8
Au      80.30965267      14.33155624      54.76891322        8
Au      83.23000368      14.33155624      54.76891322        8
Au      86.15035469      14.33155624      54.76891322        8
Au      89.07070569      14.33155624      54.76891322        8
Au      91.99105670      14.33155624      54.76891322        8
Au      94.91140770      14.33155624      54.76891322        8
Au      97.83175871      14.33155624      54.76891322        8
Au     100.75210972      14.33155624      54.76891322        8
Au       0.00000000      16.86065440      54.76891322        8
Au       2.92035101      16.86065440      54.76891322        8
Au       5.84070201      16.86065440      54.76891322        8
Au       8.76105302      16.86065440      54.76891322        8
Au      11.68140403      16.86065440      54.76891322        8
Au      14.60175503      16.86065440      54.76891322        8
Au      17.52210604      16.86065440      54.76891322        8
Au      20.44245704      16.86065440      54.76891322        8
Au      23.36280805      16.86065440      54.76891322        8
Au      26.28315906      16.86065440      54.76891322        8
Au      29.20351006      16.86065440      54.76891322        8
Au      32.12386107      16.86065440      54.76891322        8
Au      35.04421208      16.86065440      54.76891322        8
Au      37.96456308      16.86065440      54.76891322        8
Au      40.88491409      16.86065440      54.76891322        8
Au      43.80526509      16.86065440      54.76891322        8
Au      46.72561610      16.86065440      54.76891322        8
Au      49.64596711      16.86065440      54.76891322        8
Au      52.56631811      16.86065440      54.76891322        8
Au      55.48666912      16.86065440      54.76891322        8
Au      58.40702013      16.86065440      54.76891322        8
Au      61.32737113      16.86065440      54.76891322        8
Au      64.24772214      16.86065440      54.76891322        8
Au      67.16807314      16.86065440      54.76891322        8
Au      70.08842415      16.86065440      54.76891322        8
Au      73.00877516      16.86065440      54.76891322        8
Au      75.92912616      16.86065440      54.76891322        8
Au      78.84947717      16.86065440      54.76891322        8
Au      81.76982818      16.86065440      54.76891322        8
Au      84.69017918      16.86065440      54.76891322        8
Au      87.61053019      16.86065440      54.76891322        8
Au      90.53088120      16.86065440      54.76891322        8
Au      93.45123220      16.86065440      54.76891322        8
Au      96.37158321      16.86065440      54.76891322        8
Au      99.29193421      16.86065440      54.76891322        8
Au       1.46017550      19.38975256      54.76891322        8
Au       4.38052651      19.38975256      54.76891322        8
Au       7.30087752      19.38975256      54.76891322        8
Au      10.22122852      19.38975256      54.76891322        8
Au      13.14157953      19.38975256      54.76891322        8
Au      16.06193053      19.38975256      54.76891322        8
Au      18.98228154      19.38975256      54.76891322        8
Au      21.90263255      19.38975256      54.76891322        8
Au      24.82298355      19.38975256      54.76891322        8
Au      27.74333456      19.38975256      54.76891322        8
Au      30.66368557      19.38975256      54.76891322        8
Au      33.58403657      19.38975256      54.76891322        8
Au      36.50438758      19.38975256      54.76891322        8
Au      39.42473859      19.38975256      54.76891322        8
Au      42.34508959      19.38975256      54.76891322        8
Au      45.26544060      19.38975256      54.76891322        8
Au      48.18579160      19.38975256      54.76891322        8
Au      51.10614261      19.38975256      54.76891322        8
Au      54.02649362      19.38975256      54.76891322        8
Au      56.94684462      19.38975256      54.76891322        8
Au      59.86719563      19.38975256      54.76891322        8
Au      62.78754664      19.38975256      54.76891322        8
Au      65.70789764      19.38975256      54.76891322        8
Au      68.62824865      19.38975256      54.76891322        8
Au      71.54859965      19.38975256      54.76891322        8
Au      74.46895066      19.38975256      54.76891322        8
Au      77.38930167      19.38975256      54.76891322        8
Au      80.30965267      19.38975256      54.76891322        8
Au      83.23000368      19.38975256      54.76891322        8
Au      86.15035469      19.38975256      54.76891322        8
Au      89.07070569      19.38975256      54.76891322        8
Au      91.99105670      19.38975256      54.76891322        8
Au      94.91140770      19.38975256      54.76891322        8
Au      97.83175871      19.38975256      54.76891322        8
Au     100.75210972      19.38975256      54.76891322        8
Au       0.00000000      21.91885072      54.76891322        8
Au       2.92035101      21.91885072      54.76891322        8
Au       5.84070201      21.91885072      54.76891322        8
Au       8.76105302      21.91885072      54.76891322        8
Au      11.68140403      21.91885072      54.76891322        8
Au      14.60175503      21.91885072      54.76891322        8
Au      17.52210604      21.91885072      54.76891322        8
Au      20.44245704      21.91885072      54.76891322        8
Au      23.36280805      21.91885072      54.76891322        8
Au      26.28315906      21.91885072      54.76891322        8
Au      29.20351006      21.91885072      54.76891322        8
Au      32.12386107      21.91885072      54.76891322        8
Au      35.04421208      21.91885072      54.76891322        8
Au      37.96456308      21.91885072      54.76891322        8
Au      40.88491409      21.91885072      54.76891322        8
Au      43.80526509      21.91885072      54.76891322        8
Au      46.72561610      21.91885072      54.76891322        8
Au      49.64596711      21.91885072      54.76891322        8
Au      52.56631811      21.91885072      54.76891322        8
Au      55.48666912      21.91885072      54.76891322        8
Au      58.40702013      21.91885072      54.76891322        8
Au      61.32737113      21.91885072      54.76891322        8
Au      64.24772214      21.91885072      54.76891322        8
Au      67.16807314      21.91885072      54.76891322        8
Au      70.08842415      21.91885072      54.76891322        8
Au      73.00877516      21.91885072      54.76891322        8
Au      75.92912616      21.91885072      54.76891322        8
Au      78.84947717      21.91885072      54.76891322        8
Au      81.76982818      21.91885072      54.76891322        8
Au      84.69017918      21.91885072      54.76891322        8
Au      87.61053019      21.91885072      54.76891322        8
Au      90.53088120      21.91885072      54.76891322        8
Au      93.45123220      21.91885072      54.76891322        8
Au      96.37158321      21.91885072      54.76891322        8
Au      99.29193421      21.91885072      54.76891322        8
Au       1.46017550      24.44794887      54.76891322        8
Au       4.38052651      24.44794887      54.76891322        8
Au       7.30087752      24.44794887      54.76891322        8
Au      10.22122852      24.44794887      54.76891322        8
Au      13.14157953      24.44794887      54.76891322        8
Au      16.06193053      24.44794887      54.76891322        8
Au      18.98228154      24.44794887      54.76891322        8
Au      21.90263255      24.44794887      54.76891322        8
Au      24.82298355      24.44794887      54.76891322        8
Au      27.74333456      24.44794887      54.76891322        8
Au      30.66368557      24.44794887      54.76891322        8
Au      33.58403657      24.44794887      54.76891322        8
Au      36.50438758      24.44794887      54.76891322        8
Au      39.42473859      24.44794887      54.76891322        8
Au      42.34508959      24.44794887      54.76891322        8
Au      45.26544060      24.44794887      54.76891322        8
Au      48.18579160      24.44794887      54.76891322        8
Au      51.10614261      24.44794887      54.76891322        8
Au      54.02649362      24.44794887      54.76891322        8
Au      56.94684462      24.44794887      54.76891322        8
Au      59.86719563      24.44794887      54.76891322        8
Au      62.78754664      24.44794887      54.76891322        8
Au      65.70789764      24.44794887      54.76891322        8
Au      68.62824865      24.44794887      54.76891322        8
Au      71.54859965      24.44794887      54.76891322        8
Au      74.46895066      24.44794887      54.76891322        8
Au      77.38930167      24.44794887      54.76891322        8
Au      80.30965267      24.44794887      54.76891322        8
Au      83.23000368      24.44794887      54.76891322        8
Au      86.15035469      24.44794887      54.76891322        8
Au      89.07070569      24.44794887      54.76891322        8
Au      91.99105670      24.44794887      54.76891322        8
Au      94.91140770      24.44794887      54.76891322        8
Au      97.83175871      24.44794887      54.76891322        8
Au     100.75210972      24.44794887      54.76891322        8
Au       0.00000000      26.97704703      54.76891322        8
Au       2.92035101      26.97704703      54.76891322        8
Au       5.84070201      26.97704703      54.76891322        8
Au       8.76105302      26.97704703      54.76891322        8
Au      11.68140403      26.97704703      54.76891322        8
Au      14.60175503      26.97704703      54.76891322        8
Au      17.52210604      26.97704703      54.76891322        8
Au      20.44245704      26.97704703      54.76891322        8
Au      23.36280805      26.97704703      54.76891322        8
Au      26.28315906      26.97704703      54.76891322        8
Au      29.20351006      26.97704703      54.76891322        8
Au      32.12386107      26.97704703      54.76891322        8
Au      35.04421208      26.97704703      54.76891322        8
Au      37.96456308      26.97704703      54.76891322        8
Au      40.88491409      26.97704703      54.76891322        8
Au      43.80526509      26.97704703      54.76891322        8
Au      46.72561610      26.97704703      54.76891322        8
Au      49.64596711      26.97704703      54.76891322        8
Au      52.56631811      26.97704703      54.76891322        8
Au      55.48666912      26.97704703      54.76891322        8
Au      58.40702013      26.97704703      54.76891322        8
Au      61.32737113      26.97704703      54.76891322        8
Au      64.24772214      26.97704703      54.76891322        8
Au      67.16807314      26.97704703      54.76891322        8
Au      70.08842415      26.97704703      54.76891322        8
Au      73.00877516      26.97704703      54.76891322        8
Au      75.92912616      26.97704703      54.76891322        8
Au      78.84947717      26.97704703      54.76891322        8
Au      81.76982818      26.97704703      54.76891322        8
Au      84.69017918      26.97704703      54.76891322        8
Au      87.61053019      26.97704703      54.76891322        8
Au      90.53088120      26.97704703      54.76891322        8
Au      93.45123220      26.97704703      54.76891322        8
Au      96.37158321      26.97704703      54.76891322        8
Au      99.29193421      26.97704703      54.76891322        8
Au       1.46017550      29.50614519      54.76891322        8
Au       4.38052651      29.50614519      54.76891322        8
Au       7.30087752      29.50614519      54.76891322        8
Au      10.22122852      29.50614519      54.76891322        8
Au      13.14157953      29.50614519      54.76891322        8
Au      16.06193053      29.50614519      54.76891322        8
Au      18.98228154      29.50614519      54.76891322        8
Au      21.90263255      29.50614519      54.76891322        8
Au      24.82298355      29.50614519      54.76891322        8
Au      27.74333456      29.50614519      54.76891322        8
Au      30.66368557      29.50614519      54.76891322        8
Au      33.58403657      29.50614519      54.76891322        8
Au      36.50438758      29.50614519      54.76891322        8
Au      39.42473859      29.50614519      54.76891322        8
Au      42.34508959      29.50614519      54.76891322        8
Au      45.26544060      29.50614519      54.76891322        8
Au      48.18579160      29.50614519      54.76891322        8
Au      51.10614261      29.50614519      54.76891322        8
Au      54.02649362      29.50614519      54.76891322        8
Au      56.94684462      29.50614519      54.76891322        8
Au      59.86719563      29.50614519      54.76891322        8
Au      62.78754664      29.50614519      54.76891322        8
Au      65.70789764      29.50614519      54.76891322        8
Au      68.62824865      29.50614519      54.76891322        8
Au      71.54859965      29.50614519      54.76891322        8
Au      74.46895066      29.50614519      54.76891322        8
Au      77.38930167      29.50614519      54.76891322        8
Au      80.30965267      29.50614519      54.76891322        8
Au      83.23000368      29.50614519      54.76891322        8
Au      86.15035469      29.50614519      54.76891322        8
Au      89.07070569      29.50614519      54.76891322        8
Au      91.99105670      29.50614519      54.76891322        8
Au      94.91140770      29.50614519      54.76891322        8
Au      97.83175871      29.50614519      54.76891322        8
Au     100.75210972      29.50614519      54.76891322        8
Au       0.00000000      32.03524335      54.76891322        8
Au       2.92035101      32.03524335      54.76891322        8
Au       5.84070201      32.03524335      54.76891322        8
Au       8.76105302      32.03524335      54.76891322        8
Au      11.68140403      32.03524335      54.76891322        8
Au      14.60175503      32.03524335      54.76891322        8
Au      17.52210604      32.03524335      54.76891322        8
Au      20.44245704      32.03524335      54.76891322        8
Au      23.36280805      32.03524335      54.76891322        8
Au      26.28315906      32.03524335      54.76891322        8
Au      29.20351006      32.03524335      54.76891322        8
Au      32.12386107      32.03524335      54.76891322        8
Au      35.04421208      32.03524335      54.76891322        8
Au      37.96456308      32.03524335      54.76891322        8
Au      40.88491409      32.03524335      54.76891322        8
Au      43.80526509      32.03524335      54.76891322        8
Au      46.72561610      32.03524335      54.76891322        8
Au      49.64596711      32.03524335      54.76891322        8
Au      52.56631811      32.03524335      54.76891322        8
Au      55.48666912      32.03524335      54.76891322        8
Au      58.40702013      32.03524335      54.76891322        8
Au      61.32737113      32.03524335      54.76891322        8
Au      64.24772214      32.03524335      54.76891322        8
Au      67.16807314      32.03524335      54.76891322        8
Au      70.08842415      32.03524335      54.76891322        8
Au      73.00877516      32.03524335      54.76891322        8
Au      75.92912616      32.03524335      54.76891322        8
Au      78.84947717      32.03524335      54.76891322        8
Au      81.76982818      32.03524335      54.76891322        8
Au      84.69017918      32.03524335      54.76891322        8
Au      87.61053019      32.03524335      54.76891322        8
Au      90.53088120      32.03524335      54.76891322        8
Au      93.45123220      32.03524335      54.76891322        8
Au      96.37158321      32.03524335      54.76891322        8
Au      99.29193421      32.03524335      54.76891322        8
Au       1.46017550      34.56434151      54.76891322        8
Au       4.38052651      34.56434151      54.76891322        8
Au       7.30087752      34.56434151      54.76891322        8
Au      10.22122852      34.56434151      54.76891322        8
Au      13.14157953      34.56434151      54.76891322        8
Au      16.06193053      34.56434151      54.76891322        8
Au      18.98228154      34.56434151      54.76891322        8
Au      21.90263255      34.56434151      54.76891322        8
Au      24.82298355      34.56434151      54.76891322        8
Au      27.74333456      34.56434151      54.76891322        8
Au      30.66368557      34.56434151      54.76891322        8
Au      33.58403657      34.56434151      54.76891322        8
Au      36.50438758      34.56434151      54.76891322        8
Au      39.42473859      34.56434151      54.76891322        8
Au      42.34508959      34.56434151      54.76891322        8
Au      45.26544060      34.56434151      54.76891322        8
Au      48.18579160      34.56434151      54.76891322        8
Au      51.10614261      34.56434151      54.76891322        8
Au      54.02649362      34.56434151      54.76891322        8
Au      56.94684462      34.56434151      54.76891322        8
Au      59.86719563      34.56434151      54.76891322        8
Au      62.78754664      34.56434151      54.76891322        8
Au      65.70789764      34.56434151      54.76891322        8
Au      68.62824865      34.56434151      54.76891322        8
Au      71.54859965      34.56434151      54.76891322        8
Au      74.46895066      34.56434151      54.76891322        8
Au      77.38930167      34.56434151      54.76891322        8
Au      80.30965267      34.56434151      54.76891322        8
Au      83.23000368      34.56434151      54.76891322        8
Au      86.15035469      34.56434151      54.76891322        8
Au      89.07070569      34.56434151      54.76891322        8
Au      91.99105670      34.56434151      54.76891322        8
Au      94.91140770      34.56434151      54.76891322        8
Au      97.83175871      34.56434151      54.76891322        8
Au     100.75210972      34.56434151      54.76891322        8
Au       0.00000000      37.09343967      54.76891322        8
Au       2.92035101      37.09343967      54.76891322        8
Au       5.84070201      37.09343967      54.76891322        8
Au       8.76105302      37.09343967      54.76891322        8
Au      11.68140403      37.09343967      54.76891322        8
Au      14.60175503      37.09343967      54.76891322        8
Au      17.52210604      37.09343967      54.76891322        8
Au      20.44245704      37.09343967      54.76891322        8
Au      23.36280805      37.09343967      54.76891322        8
Au      26.28315906      37.09343967      54.76891322        8
Au      29.20351006      37.09343967      54.76891322        8
Au      32.12386107      37.09343967      54.76891322        8
Au      35.04421208      37.09343967      54.76891322        8
Au      37.96456308      37.09343967      54.76891322        8
Au      40.88491409      37.09343967      54.76891322        8
Au      43.80526509      37.09343967      54.76891322        8
Au      46.72561610      37.09343967      54.76891322        8
Au      49.64596711      37.09343967      54.76891322        8
Au      52.56631811      37.09343967      54.76891322        8
Au      55.48666912      37.09343967      54.76891322        8
Au      58.40702013      37.09343967      54.76891322        8
Au      61.32737113      37.09343967      54.76891322        8
Au      64.24772214      37.09343967      54.76891322        8
Au      67.16807314      37.09343967      54.76891322        8
Au      70.08842415      37.09343967      54.76891322        8
Au      73.00877516      37.09343967      54.76891322        8
Au      75.92912616      37.09343967      54.76891322        8
Au      78.84947717      37.09343967      54.76891322        8
Au      81.76982818      37.09343967      54.76891322        8
Au      84.69017918      37.09343967      54.76891322        8
Au      87.61053019      37.09343967      54.76891322        8
Au      90.53088120      37.09343967      54.76891322        8
Au      93.45123220      37.09343967      54.76891322        8
Au      96.37158321      37.09343967      54.76891322        8
Au      99.29193421      37.09343967      54.76891322        8
Au       1.46017550      39.62253783      54.76891322        8
Au       4.38052651      39.62253783      54.76891322        8
Au       7.30087752      39.62253783      54.76891322        8
Au      10.22122852      39.62253783      54.76891322        8
Au      13.14157953      39.62253783      54.76891322        8
Au      16.06193053      39.62253783      54.76891322        8
Au      18.98228154      39.62253783      54.76891322        8
Au      21.90263255      39.62253783      54.76891322        8
Au      24.82298355      39.62253783      54.76891322        8
Au      27.74333456      39.62253783      54.76891322        8
Au      30.66368557      39.62253783      54.76891322        8
Au      33.58403657      39.62253783      54.76891322        8
Au      36.50438758      39.62253783      54.76891322        8
Au      39.42473859      39.62253783      54.76891322        8
Au      42.34508959      39.62253783      54.76891322        8
Au      45.26544060      39.62253783      54.76891322        8
Au      48.18579160      39.62253783      54.76891322        8
Au      51.10614261      39.62253783      54.76891322        8
Au      54.02649362      39.62253783      54.76891322        8
Au      56.94684462      39.62253783      54.76891322        8
Au      59.86719563      39.62253783      54.76891322        8
Au      62.78754664      39.62253783      54.76891322        8
Au      65.70789764      39.62253783      54.76891322        8
Au      68.62824865      39.62253783      54.76891322        8
Au      71.54859965      39.62253783      54.76891322        8
Au      74.46895066      39.62253783      54.76891322        8
Au      77.38930167      39.62253783      54.76891322        8
Au      80.30965267      39.62253783      54.76891322        8
Au      83.23000368      39.62253783      54.76891322        8
Au      86.15035469      39.62253783      54.76891322        8
Au      89.07070569      39.62253783      54.76891322        8
Au      91.99105670      39.62253783      54.76891322        8
Au      94.91140770      39.62253783      54.76891322        8
Au      97.83175871      39.62253783      54.76891322        8
Au     100.75210972      39.62253783      54.76891322        8
Au       0.00000000      42.15163599      54.76891322        8
Au       2.92035101      42.15163599      54.76891322        8
Au       5.84070201      42.15163599      54.76891322        8
Au       8.76105302      42.15163599      54.76891322        8
Au      11.68140403      42.15163599      54.76891322        8
Au      14.60175503      42.15163599      54.76891322        8
Au      17.52210604      42.15163599      54.76891322        8
Au      20.44245704      42.15163599      54.76891322        8
Au      23.36280805      42.15163599      54.76891322        8
Au      26.28315906      42.15163599      54.76891322        8
Au      29.20351006      42.15163599      54.76891322        8
Au      32.12386107      42.15163599      54.76891322        8
Au      35.04421208      42.15163599      54.76891322        8
Au      37.96456308      42.15163599      54.76891322        8
Au      40.88491409      42.15163599      54.76891322        8
Au      43.80526509      42.15163599      54.76891322        8
Au      46.72561610      42.15163599      54.76891322        8
Au      49.64596711      42.15163599      54.76891322        8
Au      52.56631811      42.15163599      54.76891322        8
Au      55.48666912      42.15163599      54.76891322        8
Au      58.40702013      42.15163599      54.76891322        8
Au      61.32737113      42.15163599      54.76891322        8
Au      64.24772214      42.15163599      54.76891322        8
Au      67.16807314      42.15163599      54.76891322        8
Au      70.08842415      42.15163599      54.76891322        8
Au      73.00877516      42.15163599      54.76891322        8
Au      75.92912616      42.15163599      54.76891322        8
Au      78.84947717      42.15163599      54.76891322        8
Au      81.76982818      42.15163599      54.76891322        8
Au      84.69017918      42.15163599      54.76891322        8
Au      87.61053019      42.15163599      54.76891322        8
Au      90.53088120      42.15163599      54.76891322        8
Au      93.45123220      42.15163599      54.76891322        8
Au      96.37158321      42.15163599      54.76891322        8
Au      99.29193421      42.15163599      54.76891322        8
Au       1.46017550      44.68073415      54.76891322        8
Au       4.38052651      44.68073415      54.76891322        8
Au       7.30087752      44.68073415      54.76891322        8
Au      10.22122852      44.68073415      54.76891322        8
Au      13.14157953      44.68073415      54.76891322        8
Au      16.06193053      44.68073415      54.76891322        8
Au      18.98228154      44.68073415      54.76891322        8
Au      21.90263255      44.68073415      54.76891322        8
Au      24.82298355      44.68073415      54.76891322        8
Au      27.74333456      44.68073415      54.76891322        8
Au      30.66368557      44.68073415      54.76891322        8
Au      33.58403657      44.68073415      54.76891322        8
Au      36.50438758      44.68073415      54.76891322        8
Au      39.42473859      44.68073415      54.76891322        8
Au      42.34508959      44.68073415      54.76891322        8
Au      45.26544060      44.68073415      54.76891322        8
Au      48.18579160      44.68073415      54.76891322        8
Au      51.10614261      44.68073415      54.76891322        8
Au      54.02649362      44.68073415      54.76891322        8
Au      56.94684462      44.68073415      54.76891322        8
Au      59.86719563      44.68073415      54.76891322        8
Au      62.78754664      44.68073415      54.76891322        8
Au      65.70789764      44.68073415      54.76891322        8
Au      68.62824865      44.68073415      54.76891322        8
Au      71.54859965      44.68073415      54.76891322        8
Au      74.46895066      44.68073415      54.76891322        8
Au      77.38930167      44.68073415      54.76891322        8
Au      80.30965267      44.68073415      54.76891322        8
Au      83.23000368      44.68073415      54.76891322        8
Au      86.15035469      44.68073415      54.76891322        8
Au      89.07070569      44.68073415      54.76891322        8
Au      91.99105670      44.68073415      54.76891322        8
Au      94.91140770      44.68073415      54.76891322        8
Au      97.83175871      44.68073415      54.76891322        8
Au     100.75210972      44.68073415      54.76891322        8
Au       0.00000000      47.20983231      54.76891322        8
Au       2.92035101      47.20983231      54.76891322        8
Au       5.84070201      47.20983231      54.76891322        8
Au       8.76105302      47.20983231      54.76891322        8
Au      11.68140403      47.20983231      54.76891322        8
Au      14.60175503      47.20983231      54.76891322        8
Au      17.52210604      47.20983231      54.76891322        8
Au      20.44245704      47.20983231      54.76891322        8
Au      23.36280805      47.20983231      54.76891322        8
Au      26.28315906      47.20983231      54.76891322        8
Au      29.20351006      47.20983231      54.76891322        8
Au      32.12386107      47.20983231      54.76891322        8
Au      35.04421208      47.20983231      54.76891322        8
Au      37.96456308      47.20983231      54.76891322        8
Au      40.88491409      47.20983231      54.76891322        8
Au      43.80526509      47.20983231      54.76891322        8
Au      46.72561610      47.20983231      54.76891322        8
Au      49.64596711      47.20983231      54.76891322        8
Au      52.56631811      47.20983231      54.76891322        8
Au      55.48666912      47.20983231      54.76891322        8
Au      58.40702013      47.20983231      54.76891322        8
Au      61.32737113      47.20983231      54.76891322        8
Au      64.24772214      47.20983231      54.76891322        8
Au      67.16807314      47.20983231      54.76891322        8
Au      70.08842415      47.20983231      54.76891322        8
Au      73.00877516      47.20983231      54.76891322        8
Au      75.92912616      47.20983231      54.76891322        8
Au      78.84947717      47.20983231      54.76891322        8
Au      81.76982818      47.20983231      54.76891322        8
Au      84.69017918      47.20983231      54.76891322        8
Au      87.61053019      47.20983231      54.76891322        8
Au      90.53088120      47.20983231      54.76891322        8
Au      93.45123220      47.20983231      54.76891322        8
Au      96.37158321      47.20983231      54.76891322        8
Au      99.29193421      47.20983231      54.76891322        8
Au       1.46017550      49.73893047      54.76891322        8
Au       4.38052651      49.73893047      54.76891322        8
Au       7.30087752      49.73893047      54.76891322        8
Au      10.22122852      49.73893047      54.76891322        8
Au      13.14157953      49.73893047      54.76891322        8
Au      16.06193053      49.73893047      54.76891322        8
Au      18.98228154      49.73893047      54.76891322        8
Au      21.90263255      49.73893047      54.76891322        8
Au      24.82298355      49.73893047      54.76891322        8
Au      27.74333456      49.73893047      54.76891322        8
Au      30.66368557      49.73893047      54.76891322        8
Au      33.58403657      49.73893047      54.76891322        8
Au      36.50438758      49.73893047      54.76891322        8
Au      39.42473859      49.73893047      54.76891322        8
Au      42.34508959      49.73893047      54.76891322        8
Au      45.26544060      49.73893047      54.76891322        8
Au      48.18579160      49.73893047      54.76891322        8
Au      51.10614261      49.73893047      54.76891322        8
Au      54.02649362      49.73893047      54.76891322        8
Au      56.94684462      49.73893047      54.76891322        8
Au      59.86719563      49.73893047      54.76891322        8
Au      62.78754664      49.73893047      54.76891322        8
Au      65.70789764      49.73893047      54.76891322        8
Au      68.62824865      49.73893047      54.76891322        8
Au      71.54859965      49.73893047      54.76891322        8
Au      74.46895066      49.73893047      54.76891322        8
Au      77.38930167      49.73893047      54.76891322        8
Au      80.30965267      49.73893047      54.76891322        8
Au      83.23000368      49.73893047      54.76891322        8
Au      86.15035469      49.73893047      54.76891322        8
Au      89.07070569      49.73893047      54.76891322        8
Au      91.99105670      49.73893047      54.76891322        8
Au      94.91140770      49.73893047      54.76891322        8
Au      97.83175871      49.73893047      54.76891322        8
Au     100.75210972      49.73893047      54.76891322        8
Au       0.00000000       0.00000000      57.15336984        7
Au       2.92035101       0.00000000      57.15336984        7
Au       5.84070201       0.00000000      57.15336984        7
Au       8.76105302       0.00000000      57.15336984        7
Au      11.68140403       0.00000000      57.15336984        7
Au      14.60175503       0.00000000      57.15336984        7
Au      17.52210604       0.00000000      57.15336984        7
Au      20.44245704       0.00000000      57.15336984        7
Au      23.36280805       0.00000000      57.15336984        7
Au      26.28315906       0.00000000      57.15336984        7
Au      29.20351006       0.00000000      57.15336984        7
Au      32.12386107       0.00000000      57.15336984        7
Au      35.04421208       0.00000000      57.15336984        7
Au      37.96456308       0.00000000      57.15336984        7
Au      40.88491409       0.00000000      57.15336984        7
Au      43.80526509       0.00000000      57.15336984        7
Au      46.72561610       0.00000000      57.15336984        7
Au      49.64596711       0.00000000      57.15336984        7
Au      52.56631811       0.00000000      57.15336984        7
Au      55.48666912       0.00000000      57.15336984        7
Au      58.40702013       0.00000000      57.15336984        7
Au      61.32737113       0.00000000      57.15336984        7
Au      64.24772214       0.00000000      57.15336984        7
Au      67.16807314       0.00000000      57.15336984        7
Au      70.08842415       0.00000000      57.15336984        7
Au      73.00877516       0.00000000      57.15336984        7
Au      75.92912616       0.00000000      57.15336984        7
Au      78.84947717       0.00000000      57.15336984        7
Au      81.76982818       0.00000000      57.15336984        7
Au      84.69017918       0.00000000      57.15336984        7
Au      87.61053019       0.00000000      57.15336984        7
Au      90.53088120       0.00000000      57.15336984        7
Au      93.45123220       0.00000000      57.15336984        7
Au      96.37158321       0.00000000      57.15336984        7
Au      99.29193421       0.00000000      57.15336984        7
Au       1.46017550       2.52909816      57.15336984        7
Au       4.38052651       2.52909816      57.15336984        7
Au       7.30087752       2.52909816      57.15336984        7
Au      10.22122852       2.52909816      57.15336984        7
Au      13.14157953       2.52909816      57.15336984        7
Au      16.06193053       2.52909816      57.15336984        7
Au      18.98228154       2.52909816      57.15336984        7
Au      21.90263255       2.52909816      57.15336984        7
Au      24.82298355       2.52909816      57.15336984        7
Au      27.74333456       2.52909816      57.15336984        7
Au      30.66368557       2.52909816      57.15336984        7
Au      33.58403657       2.52909816      57.15336984        7
Au      36.50438758       2.52909816      57.15336984        7
Au      39.42473859       2.52909816      57.15336984        7
Au      42.34508959       2.52909816      57.15336984        7
Au      45.26544060       2.52909816      57.15336984        7
Au      48.18579160       2.52909816      57.15336984        7
Au      51.10614261       2.52909816      57.15336984        7
Au      54.02649362       2.52909816      57.15336984        7
Au      56.94684462       2.52909816      57.15336984        7
Au      59.86719563       2.52909816      57.15336984        7
Au      62.78754664       2.52909816      57.15336984        7
Au      65.70789764       2.52909816      57.15336984        7
Au      68.62824865       2.52909816      57.15336984        7
Au      71.54859965       2.52909816      57.15336984        7
Au      74.46895066       2.52909816      57.15336984        7
Au      77.38930167       2.52909816      57.15336984        7
Au      80.30965267       2.52909816      57.15336984        7
Au      83.23000368       2.52909816      57.15336984        7
Au      86.15035469       2.52909816      57.15336984        7
Au      89.07070569       2.52909816      57.15336984        7
Au      91.99105670       2.52909816      57.15336984        7
Au      94.91140770       2.52909816      57.15336984        7
Au      97.83175871       2.52909816      57.15336984        7
Au     100.75210972       2.52909816      57.15336984        7
Au       0.00000000       5.05819632      57.15336984        7
Au       2.92035101       5.05819632      57.15336984        7
Au       5.84070201       5.05819632      57.15336984        7
Au       8.76105302       5.05819632      57.15336984        7
Au      11.68140403       5.05819632      57.15336984        7
Au      14.60175503       5.05819632      57.15336984        7
Au      17.52210604       5.05819632      57.15336984        7
Au      20.44245704       5.05819632      57.15336984        7
Au      23.36280805       5.05819632      57.15336984        7
Au      26.28315906       5.05819632      57.15336984        7
Au      29.20351006       5.05819632      57.15336984        7
Au      32.12386107       5.05819632      57.15336984        7
Au      35.04421208       5.05819632      57.15336984        7
Au      37.96456308       5.05819632      57.15336984        7
Au      40.88491409       5.05819632      57.15336984        7
Au      43.80526509       5.05819632      57.15336984        7
Au      46.72561610       5.05819632      57.15336984        7
Au      49.64596711       5.05819632      57.15336984        7
Au      52.56631811       5.05819632      57.15336984        7
Au      55.48666912       5.05819632      57.15336984        7
Au      58.40702013       5.05819632      57.15336984        7
Au      61.32737113       5.05819632      57.15336984        7
Au      64.24772214       5.05819632      57.15336984        7
Au      67.16807314       5.05819632      57.15336984        7
Au      70.08842415       5.05819632      57.15336984        7
Au      73.00877516       5.05819632      57.15336984        7
Au      75.92912616       5.05819632      57.15336984        7
Au      78.84947717       5.05819632      57.15336984        7
Au      81.76982818       5.05819632      57.15336984        7
Au      84.69017918       5.05819632      57.15336984        7
Au      87.61053019       5.05819632      57.15336984        7
Au      90.53088120       5.05819632      57.15336984        7
Au      93.45123220       5.05819632      57.15336984        7
Au      96.37158321       5.05819632      57.15336984        7
Au      99.29193421       5.05819632      57.15336984        7
Au       1.46017550       7.58729448      57.15336984        7
Au       4.38052651       7.58729448      57.15336984        7
Au       7.30087752       7.58729448      57.15336984        7
Au      10.22122852       7.58729448      57.15336984        7
Au      13.14157953       7.58729448      57.15336984        7
Au      16.06193053       7.58729448      57.15336984        7
Au      18.98228154       7.58729448      57.15336984        7
Au      21.90263255       7.58729448      57.15336984        7
Au      24.82298355       7.58729448      57.15336984        7
Au      27.74333456       7.58729448      57.15336984        7
Au      30.66368557       7.58729448      57.15336984        7
Au      33.58403657       7.58729448      57.15336984        7
Au      36.50438758       7.58729448      57.15336984        7
Au      39.42473859       7.58729448      57.15336984        7
Au      42.34508959       7.58729448      57.15336984        7
Au      45.26544060       7.58729448      57.15336984        7
Au      48.18579160       7.58729448      57.15336984        7
Au      51.10614261       7.58729448      57.15336984        7
Au      54.02649362       7.58729448      57.15336984        7
Au      56.94684462       7.58729448      57.15336984        7
Au      59.86719563       7.58729448      57.15336984        7
Au      62.78754664       7.58729448      57.15336984        7
Au      65.70789764       7.58729448      57.15336984        7
Au      68.62824865       7.58729448      57.15336984        7
Au      71.54859965       7.58729448      57.15336984        7
Au      74.46895066       7.58729448      57.15336984        7
Au      77.38930167       7.58729448      57.15336984        7
Au      80.30965267       7.58729448      57.15336984        7
Au      83.23000368       7.58729448      57.15336984        7
Au      86.15035469       7.58729448      57.15336984        7
Au      89.07070569       7.58729448      57.15336984        7
Au      91.99105670       7.58729448      57.15336984        7
Au      94.91140770       7.58729448      57.15336984        7
Au      97.83175871       7.58729448      57.15336984        7
Au     100.75210972       7.58729448      57.15336984        7
Au       0.00000000      10.11639264      57.15336984        7
Au       2.92035101      10.11639264      57.15336984        7
Au       5.84070201      10.11639264      57.15336984        7
Au       8.76105302      10.11639264      57.15336984        7
Au      11.68140403      10.11639264      57.15336984        7
Au      14.60175503      10.11639264      57.15336984        7
Au      17.52210604      10.11639264      57.15336984        7
Au      20.44245704      10.11639264      57.15336984        7
Au      23.36280805      10.11639264      57.15336984        7
Au      26.28315906      10.11639264      57.15336984        7
Au      29.20351006      10.11639264      57.15336984        7
Au      32.12386107      10.11639264      57.15336984        7
Au      35.04421208      10.11639264      57.15336984        7
Au      37.96456308      10.11639264      57.15336984        7
Au      40.88491409      10.11639264      57.15336984        7
Au      43.80526509      10.11639264      57.15336984        7
Au      46.72561610      10.11639264      57.15336984        7
Au      49.64596711      10.11639264      57.15336984        7
Au      52.56631811      10.11639264      57.15336984        7
Au      55.48666912      10.11639264      57.15336984        7
Au      58.40702013      10.11639264      57.15336984        7
Au      61.32737113      10.11639264      57.15336984        7
Au      64.24772214      10.11639264      57.15336984        7
Au      67.16807314      10.11639264      57.15336984        7
Au      70.08842415      10.11639264      57.15336984        7
Au      73.00877516      10.11639264      57.15336984        7
Au      75.92912616      10.11639264      57.15336984        7
Au      78.84947717      10.11639264      57.15336984        7
Au      81.76982818      10.11639264      57.15336984        7
Au      84.69017918      10.11639264      57.15336984        7
Au      87.61053019      10.11639264      57.15336984        7
Au      90.53088120      10.11639264      57.15336984        7
Au      93.45123220      10.11639264      57.15336984        7
Au      96.37158321      10.11639264      57.15336984        7
Au      99.29193421      10.11639264      57.15336984        7
Au       1.46017550      12.64549080      57.15336984        7
Au       4.38052651      12.64549080      57.15336984        7
Au       7.30087752      12.64549080      57.15336984        7
Au      10.22122852      12.64549080      57.15336984        7
Au      13.14157953      12.64549080      57.15336984        7
Au      16.06193053      12.64549080      57.15336984        7
Au      18.98228154      12.64549080      57.15336984        7
Au      21.90263255      12.64549080      57.15336984        7
Au      24.82298355      12.64549080      57.15336984        7
Au      27.74333456      12.64549080      57.15336984        7
Au      30.66368557      12.64549080      57.15336984        7
Au      33.58403657      12.64549080      57.15336984        7
Au      36.50438758      12.64549080      57.15336984        7
Au      39.42473859      12.64549080      57.15336984        7
Au      42.34508959      12.64549080      57.15336984        7
Au      45.26544060      12.64549080      57.15336984        7
Au      48.18579160      12.64549080      57.15336984        7
Au      51.10614261      12.64549080      57.15336984        7
Au      54.02649362      12.64549080      57.15336984        7
Au      56.94684462      12.64549080      57.15336984        7
Au      59.86719563      12.64549080      57.15336984        7
Au      62.78754664      12.64549080      57.15336984        7
Au      65.70789764      12.64549080      57.15336984        7
Au      68.62824865      12.64549080      57.15336984        7
Au      71.54859965      12.64549080      57.15336984        7
Au      74.46895066      12.64549080      57.15336984        7
Au      77.38930167      12.64549080      57.15336984        7
Au      80.30965267      12.64549080      57.15336984        7
Au      83.23000368      12.64549080      57.15336984        7
Au      86.15035469      12.64549080      57.15336984        7
Au      89.07070569      12.64549080      57.15336984        7
Au      91.99105670      12.64549080      57.15336984        7
Au      94.91140770      12.64549080      57.15336984        7
Au      97.83175871      12.64549080      57.15336984        7
Au     100.75210972      12.64549080      57.15336984        7
Au       0.00000000      15.17458896      57.15336984        7
Au       2.92035101      15.17458896      57.15336984        7
Au       5.84070201      15.17458896      57.15336984        7
Au       8.76105302      15.17458896      57.15336984        7
Au      11.68140403      15.17458896      57.15336984        7
Au      14.60175503      15.17458896      57.15336984        7
Au      17.52210604      15.17458896      57.15336984        7
Au      20.44245704      15.17458896      57.15336984        7
Au      23.36280805      15.17458896      57.15336984        7
Au      26.28315906      15.17458896      57.15336984        7
Au      29.20351006      15.17458896      57.15336984        7
Au      32.12386107      15.17458896      57.15336984        7
Au      35.04421208      15.17458896      57.15336984        7
Au      37.96456308      15.17458896      57.15336984        7
Au      40.88491409      15.17458896      57.15336984        7
Au      43.80526509      15.17458896      57.15336984        7
Au      46.72561610      15.17458896      57.15336984        7
Au      49.64596711      15.17458896      57.15336984        7
Au      52.56631811      15.17458896      57.15336984        7
Au      55.48666912      15.17458896      57.15336984        7
Au      58.40702013      15.17458896      57.15336984        7
Au      61.32737113      15.17458896      57.15336984        7
Au      64.24772214      15.17458896      57.15336984        7
Au      67.16807314      15.17458896      57.15336984        7
Au      70.08842415      15.17458896      57.15336984        7
Au      73.00877516      15.17458896      57.15336984        7
Au      75.92912616      15.17458896      57.15336984        7
Au      78.84947717      15.17458896      57.15336984        7
Au      81.76982818      15.17458896      57.15336984        7
Au      84.69017918      15.17458896      57.15336984        7
Au      87.61053019      15.17458896      57.15336984        7
Au      90.53088120      15.17458896      57.15336984        7
Au      93.45123220      15.17458896      57.15336984        7
Au      96.37158321      15.17458896      57.15336984        7
Au      99.29193421      15.17458896      57.15336984        7
Au       1.46017550      17.70368712      57.15336984        7
Au       4.38052651      17.70368712      57.15336984        7
Au       7.30087752      17.70368712      57.15336984        7
Au      10.22122852      17.70368712      57.15336984        7
Au      13.14157953      17.70368712      57.15336984        7
Au      16.06193053      17.70368712      57.15336984        7
Au      18.98228154      17.70368712      57.15336984        7
Au      21.90263255      17.70368712      57.15336984        7
Au      24.82298355      17.70368712      57.15336984        7
Au      27.74333456      17.70368712      57.15336984        7
Au      30.66368557      17.70368712      57.15336984        7
Au      33.58403657      17.70368712      57.15336984        7
Au      36.50438758      17.70368712      57.15336984        7
Au      39.42473859      17.70368712      57.15336984        7
Au      42.34508959      17.70368712      57.15336984        7
Au      45.26544060      17.70368712      57.15336984        7
Au      48.18579160      17.70368712      57.15336984        7
Au      51.10614261      17.70368712      57.15336984        7
Au      54.02649362      17.70368712      57.15336984        7
Au      56.94684462      17.70368712      57.15336984        7
Au      59.86719563      17.70368712      57.15336984        7
Au      62.78754664      17.70368712      57.15336984        7
Au      65.70789764      17.70368712      57.15336984        7
Au      68.62824865      17.70368712      57.15336984        7
Au      71.54859965      17.70368712      57.15336984        7
Au      74.46895066      17.70368712      57.15336984        7
Au      77.38930167      17.70368712      57.15336984        7
Au      80.30965267      17.70368712      57.15336984        7
Au      83.23000368      17.70368712      57.15336984        7
Au      86.15035469      17.70368712      57.15336984        7
Au      89.07070569      17.70368712      57.15336984        7
Au      91.99105670      17.70368712      57.15336984        7
Au      94.91140770      17.70368712      57.15336984        7
Au      97.83175871      17.70368712      57.15336984        7
Au     100.75210972      17.70368712      57.15336984        7
Au       0.00000000      20.23278528      57.15336984        7
Au       2.92035101      20.23278528      57.15336984        7
Au       5.84070201      20.23278528      57.15336984        7
Au       8.76105302      20.23278528      57.15336984        7
Au      11.68140403      20.23278528      57.15336984        7
Au      14.60175503      20.23278528      57.15336984        7
Au      17.52210604      20.23278528      57.15336984        7
Au      20.44245704      20.23278528      57.15336984        7
Au      23.36280805      20.23278528      57.15336984        7
Au      26.28315906      20.23278528      57.15336984        7
Au      29.20351006      20.23278528      57.15336984        7
Au      32.12386107      20.23278528      57.15336984        7
Au      35.04421208      20.23278528      57.15336984        7
Au      37.96456308      20.23278528      57.15336984        7
Au      40.88491409      20.23278528      57.15336984        7
Au      43.80526509      20.23278528      57.15336984        7
Au      46.72561610      20.23278528      57.15336984        7
Au      49.64596711      20.23278528      57.15336984        7
Au      52.56631811      20.23278528      57.15336984        7
Au      55.48666912      20.23278528      57.15336984        7
Au      58.40702013      20.23278528      57.15336984        7
Au      61.32737113      20.23278528      57.15336984        7
Au      64.24772214      20.23278528      57.15336984        7
Au      67.16807314      20.23278528      57.15336984        7
Au      70.08842415      20.23278528      57.15336984        7
Au      73.00877516      20.23278528      57.15336984        7
Au      75.92912616      20.23278528      57.15336984        7
Au      78.84947717      20.23278528      57.15336984        7
Au      81.76982818      20.23278528      57.15336984        7
Au      84.69017918      20.23278528      57.15336984        7
Au      87.61053019      20.23278528      57.15336984        7
Au      90.53088120      20.23278528      57.15336984        7
Au      93.45123220      20.23278528      57.15336984        7
Au      96.37158321      20.23278528      57.15336984        7
Au      99.29193421      20.23278528      57.15336984        7
Au       1.46017550      22.76188343      57.15336984        7
Au       4.38052651      22.76188343      57.15336984        7
Au       7.30087752      22.76188343      57.15336984        7
Au      10.22122852      22.76188343      57.15336984        7
Au      13.14157953      22.76188343      57.15336984        7
Au      16.06193053      22.76188343      57.15336984        7
Au      18.98228154      22.76188343      57.15336984        7
Au      21.90263255      22.76188343      57.15336984        7
Au      24.82298355      22.76188343      57.15336984        7
Au      27.74333456      22.76188343      57.15336984        7
Au      30.66368557      22.76188343      57.15336984        7
Au      33.58403657      22.76188343      57.15336984        7
Au      36.50438758      22.76188343      57.15336984        7
Au      39.42473859      22.76188343      57.15336984        7
Au      42.34508959      22.76188343      57.15336984        7
Au      45.26544060      22.76188343      57.15336984        7
Au      48.18579160      22.76188343      57.15336984        7
Au      51.10614261      22.76188343      57.15336984        7
Au      54.02649362      22.76188343      57.15336984        7
Au      56.94684462      22.76188343      57.15336984        7
Au      59.86719563      22.76188343      57.15336984        7
Au      62.78754664      22.76188343      57.15336984        7
Au      65.70789764      22.76188343      57.15336984        7
Au      68.62824865      22.76188343      57.15336984        7
Au      71.54859965      22.76188343      57.15336984        7
Au      74.46895066      22.76188343      57.15336984        7
Au      77.38930167      22.76188343      57.15336984        7
Au      80.30965267      22.76188343      57.15336984        7
Au      83.23000368      22.76188343      57.15336984        7
Au      86.15035469      22.76188343      57.15336984        7
Au      89.07070569      22.76188343      57.15336984        7
Au      91.99105670      22.76188343      57.15336984        7
Au      94.91140770      22.76188343      57.15336984        7
Au      97.83175871      22.76188343      57.15336984        7
Au     100.75210972      22.76188343      57.15336984        7
Au       0.00000000      25.29098159      57.15336984        7
Au       2.92035101      25.29098159      57.15336984        7
Au       5.84070201      25.29098159      57.15336984        7
Au       8.76105302      25.29098159      57.15336984        7
Au      11.68140403      25.29098159      57.15336984        7
Au      14.60175503      25.29098159      57.15336984        7
Au      17.52210604      25.29098159      57.15336984        7
Au      20.44245704      25.29098159      57.15336984        7
Au      23.36280805      25.29098159      57.15336984        7
Au      26.28315906      25.29098159      57.15336984        7
Au      29.20351006      25.29098159      57.15336984        7
Au      32.12386107      25.29098159      57.15336984        7
Au      35.04421208      25.29098159      57.15336984        7
Au      37.96456308      25.29098159      57.15336984        7
Au      40.88491409      25.29098159      57.15336984        7
Au      43.80526509      25.29098159      57.15336984        7
Au      46.72561610      25.29098159      57.15336984        7
Au      49.64596711      25.29098159      57.15336984        7
Au      52.56631811      25.29098159      57.15336984        7
Au      55.48666912      25.29098159      57.15336984        7
Au      58.40702013      25.29098159      57.15336984        7
Au      61.32737113      25.29098159      57.15336984        7
Au      64.24772214      25.29098159      57.15336984        7
Au      67.16807314      25.29098159      57.15336984        7
Au      70.08842415      25.29098159      57.15336984        7
Au      73.00877516      25.29098159      57.15336984        7
Au      75.92912616      25.29098159      57.15336984        7
Au      78.84947717      25.29098159      57.15336984        7
Au      81.76982818      25.29098159      57.15336984        7
Au      84.69017918      25.29098159      57.15336984        7
Au      87.61053019      25.29098159      57.15336984        7
Au      90.53088120      25.29098159      57.15336984        7
Au      93.45123220      25.29098159      57.15336984        7
Au      96.37158321      25.29098159      57.15336984        7
Au      99.29193421      25.29098159      57.15336984        7
Au       1.46017550      27.82007975      57.15336984        7
Au       4.38052651      27.82007975      57.15336984        7
Au       7.30087752      27.82007975      57.15336984        7
Au      10.22122852      27.82007975      57.15336984        7
Au      13.14157953      27.82007975      57.15336984        7
Au      16.06193053      27.82007975      57.15336984        7
Au      18.98228154      27.82007975      57.15336984        7
Au      21.90263255      27.82007975      57.15336984        7
Au      24.82298355      27.82007975      57.15336984        7
Au      27.74333456      27.82007975      57.15336984        7
Au      30.66368557      27.82007975      57.15336984        7
Au      33.58403657      27.82007975      57.15336984        7
Au      36.50438758      27.82007975      57.15336984        7
Au      39.42473859      27.82007975      57.15336984        7
Au      42.34508959      27.82007975      57.15336984        7
Au      45.26544060      27.82007975      57.15336984        7
Au      48.18579160      27.82007975      57.15336984        7
Au      51.10614261      27.82007975      57.15336984        7
Au      54.02649362      27.82007975      57.15336984        7
Au      56.94684462      27.82007975      57.15336984        7
Au      59.86719563      27.82007975      57.15336984        7
Au      62.78754664      27.82007975      57.15336984        7
Au      65.70789764      27.82007975      57.15336984        7
Au      68.62824865      27.82007975      57.15336984        7
Au      71.54859965      27.82007975      57.15336984        7
Au      74.46895066      27.82007975      57.15336984        7
Au      77.38930167      27.82007975      57.15336984        7
Au      80.30965267      27.82007975      57.15336984        7
Au      83.23000368      27.82007975      57.15336984        7
Au      86.15035469      27.82007975      57.15336984        7
Au      89.07070569      27.82007975      57.15336984        7
Au      91.99105670      27.82007975      57.15336984        7
Au      94.91140770      27.82007975      57.15336984        7
Au      97.83175871      27.82007975      57.15336984        7
Au     100.75210972      27.82007975      57.15336984        7
Au       0.00000000      30.34917791      57.15336984        7
Au       2.92035101      30.34917791      57.15336984        7
Au       5.84070201      30.34917791      57.15336984        7
Au       8.76105302      30.34917791      57.15336984        7
Au      11.68140403      30.34917791      57.15336984        7
Au      14.60175503      30.34917791      57.15336984        7
Au      17.52210604      30.34917791      57.15336984        7
Au      20.44245704      30.34917791      57.15336984        7
Au      23.36280805      30.34917791      57.15336984        7
Au      26.28315906      30.34917791      57.15336984        7
Au      29.20351006      30.34917791      57.15336984        7
Au      32.12386107      30.34917791      57.15336984        7
Au      35.04421208      30.34917791      57.15336984        7
Au      37.96456308      30.34917791      57.15336984        7
Au      40.88491409      30.34917791      57.15336984        7
Au      43.80526509      30.34917791      57.15336984        7
Au      46.72561610      30.34917791      57.15336984        7
Au      49.64596711      30.34917791      57.15336984        7
Au      52.56631811      30.34917791      57.15336984        7
Au      55.48666912      30.34917791      57.15336984        7
Au      58.40702013      30.34917791      57.15336984        7
Au      61.32737113      30.34917791      57.15336984        7
Au      64.24772214      30.34917791      57.15336984        7
Au      67.16807314      30.34917791      57.15336984        7
Au      70.08842415      30.34917791      57.15336984        7
Au      73.00877516      30.34917791      57.15336984        7
Au      75.92912616      30.34917791      57.15336984        7
Au      78.84947717      30.34917791      57.15336984        7
Au      81.76982818      30.34917791      57.15336984        7
Au      84.69017918      30.34917791      57.15336984        7
Au      87.61053019      30.34917791      57.15336984        7
Au      90.53088120      30.34917791      57.15336984        7
Au      93.45123220      30.34917791      57.15336984        7
Au      96.37158321      30.34917791      57.15336984        7
Au      99.29193421      30.34917791      57.15336984        7
Au       1.46017550      32.87827607      57.15336984        7
Au       4.38052651      32.87827607      57.15336984        7
Au       7.30087752      32.87827607      57.15336984        7
Au      10.22122852      32.87827607      57.15336984        7
Au      13.14157953      32.87827607      57.15336984        7
Au      16.06193053      32.87827607      57.15336984        7
Au      18.98228154      32.87827607      57.15336984        7
Au      21.90263255      32.87827607      57.15336984        7
Au      24.82298355      32.87827607      57.15336984        7
Au      27.74333456      32.87827607      57.15336984        7
Au      30.66368557      32.87827607      57.15336984        7
Au      33.58403657      32.87827607      57.15336984        7
Au      36.50438758      32.87827607      57.15336984        7
Au      39.42473859      32.87827607      57.15336984        7
Au      42.34508959      32.87827607      57.15336984        7
Au      45.26544060      32.87827607      57.15336984        7
Au      48.18579160      32.87827607      57.15336984        7
Au      51.10614261      32.87827607      57.15336984        7
Au      54.02649362      32.87827607      57.15336984        7
Au      56.94684462      32.87827607      57.15336984        7
Au      59.86719563      32.87827607      57.15336984        7
Au      62.78754664      32.87827607      57.15336984        7
Au      65.70789764      32.87827607      57.15336984        7
Au      68.62824865      32.87827607      57.15336984        7
Au      71.54859965      32.87827607      57.15336984        7
Au      74.46895066      32.87827607      57.15336984        7
Au      77.38930167      32.87827607      57.15336984        7
Au      80.30965267      32.87827607      57.15336984        7
Au      83.23000368      32.87827607      57.15336984        7
Au      86.15035469      32.87827607      57.15336984        7
Au      89.07070569      32.87827607      57.15336984        7
Au      91.99105670      32.87827607      57.15336984        7
Au      94.91140770      32.87827607      57.15336984        7
Au      97.83175871      32.87827607      57.15336984        7
Au     100.75210972      32.87827607      57.15336984        7
Au       0.00000000      35.40737423      57.15336984        7
Au       2.92035101      35.40737423      57.15336984        7
Au       5.84070201      35.40737423      57.15336984        7
Au       8.76105302      35.40737423      57.15336984        7
Au      11.68140403      35.40737423      57.15336984        7
Au      14.60175503      35.40737423      57.15336984        7
Au      17.52210604      35.40737423      57.15336984        7
Au      20.44245704      35.40737423      57.15336984        7
Au      23.36280805      35.40737423      57.15336984        7
Au      26.28315906      35.40737423      57.15336984        7
Au      29.20351006      35.40737423      57.15336984        7
Au      32.12386107      35.40737423      57.15336984        7
Au      35.04421208      35.40737423      57.15336984        7
Au      37.96456308      35.40737423      57.15336984        7
Au      40.88491409      35.40737423      57.15336984        7
Au      43.80526509      35.40737423      57.15336984        7
Au      46.72561610      35.40737423      57.15336984        7
Au      49.64596711      35.40737423      57.15336984        7
Au      52.56631811      35.40737423      57.15336984        7
Au      55.48666912      35.40737423      57.15336984        7
Au      58.40702013      35.40737423      57.15336984        7
Au      61.32737113      35.40737423      57.15336984        7
Au      64.24772214      35.40737423      57.15336984        7
Au      67.16807314      35.40737423      57.15336984        7
Au      70.08842415      35.40737423      57.15336984        7
Au      73.00877516      35.40737423      57.15336984        7
Au      75.92912616      35.40737423      57.15336984        7
Au      78.84947717      35.40737423      57.15336984        7
Au      81.76982818      35.40737423      57.15336984        7
Au      84.69017918      35.40737423      57.15336984        7
Au      87.61053019      35.40737423      57.15336984        7
Au      90.53088120      35.40737423      57.15336984        7
Au      93.45123220      35.40737423      57.15336984        7
Au      96.37158321      35.40737423      57.15336984        7
Au      99.29193421      35.40737423      57.15336984        7
Au       1.46017550      37.93647239      57.15336984        7
Au       4.38052651      37.93647239      57.15336984        7
Au       7.30087752      37.93647239      57.15336984        7
Au      10.22122852      37.93647239      57.15336984        7
Au      13.14157953      37.93647239      57.15336984        7
Au      16.06193053      37.93647239      57.15336984        7
Au      18.98228154      37.93647239      57.15336984        7
Au      21.90263255      37.93647239      57.15336984        7
Au      24.82298355      37.93647239      57.15336984        7
Au      27.74333456      37.93647239      57.15336984        7
Au      30.66368557      37.93647239      57.15336984        7
Au      33.58403657      37.93647239      57.15336984        7
Au      36.50438758      37.93647239      57.15336984        7
Au      39.42473859      37.93647239      57.15336984        7
Au      42.34508959      37.93647239      57.15336984        7
Au      45.26544060      37.93647239      57.15336984        7
Au      48.18579160      37.93647239      57.15336984        7
Au      51.10614261      37.93647239      57.15336984        7
Au      54.02649362      37.93647239      57.15336984        7
Au      56.94684462      37.93647239      57.15336984        7
Au      59.86719563      37.93647239      57.15336984        7
Au      62.78754664      37.93647239      57.15336984        7
Au      65.70789764      37.93647239      57.15336984        7
Au      68.62824865      37.93647239      57.15336984        7
Au      71.54859965      37.93647239      57.15336984        7
Au      74.46895066      37.93647239      57.15336984        7
Au      77.38930167      37.93647239      57.15336984        7
Au      80.30965267      37.93647239      57.15336984        7
Au      83.23000368      37.93647239      57.15336984        7
Au      86.15035469      37.93647239      57.15336984        7
Au      89.07070569      37.93647239      57.15336984        7
Au      91.99105670      37.93647239      57.15336984        7
Au      94.91140770      37.93647239      57.15336984        7
Au      97.83175871      37.93647239      57.15336984        7
Au     100.75210972      37.93647239      57.15336984        7
Au       0.00000000      40.46557055      57.15336984        7
Au       2.92035101      40.46557055      57.15336984        7
Au       5.84070201      40.46557055      57.15336984        7
Au       8.76105302      40.46557055      57.15336984        7
Au      11.68140403      40.46557055      57.15336984        7
Au      14.60175503      40.46557055      57.15336984        7
Au      17.52210604      40.46557055      57.15336984        7
Au      20.44245704      40.46557055      57.15336984        7
Au      23.36280805      40.46557055      57.15336984        7
Au      26.28315906      40.46557055      57.15336984        7
Au      29.20351006      40.46557055      57.15336984        7
Au      32.12386107      40.46557055      57.15336984        7
Au      35.04421208      40.46557055      57.15336984        7
Au      37.96456308      40.46557055      57.15336984        7
Au      40.88491409      40.46557055      57.15336984        7
Au      43.80526509      40.46557055      57.15336984        7
Au      46.72561610      40.46557055      57.15336984        7
Au      49.64596711      40.46557055      57.15336984        7
Au      52.56631811      40.46557055      57.15336984        7
Au      55.48666912      40.46557055      57.15336984        7
Au      58.40702013      40.46557055      57.15336984        7
Au      61.32737113      40.46557055      57.15336984        7
Au      64.24772214      40.46557055      57.15336984        7
Au      67.16807314      40.46557055      57.15336984        7
Au      70.08842415      40.46557055      57.15336984        7
Au      73.00877516      40.46557055      57.15336984        7
Au      75.92912616      40.46557055      57.15336984        7
Au      78.84947717      40.46557055      57.15336984        7
Au      81.76982818      40.46557055      57.15336984        7
Au      84.69017918      40.46557055      57.15336984        7
Au      87.61053019      40.46557055      57.15336984        7
Au      90.53088120      40.46557055      57.15336984        7
Au      93.45123220      40.46557055      57.15336984        7
Au      96.37158321      40.46557055      57.15336984        7
Au      99.29193421      40.46557055      57.15336984        7
Au       1.46017550      42.99466871      57.15336984        7
Au       4.38052651      42.99466871      57.15336984        7
Au       7.30087752      42.99466871      57.15336984        7
Au      10.22122852      42.99466871      57.15336984        7
Au      13.14157953      42.99466871      57.15336984        7
Au      16.06193053      42.99466871      57.15336984        7
Au      18.98228154      42.99466871      57.15336984        7
Au      21.90263255      42.99466871      57.15336984        7
Au      24.82298355      42.99466871      57.15336984        7
Au      27.74333456      42.99466871      57.15336984        7
Au      30.66368557      42.99466871      57.15336984        7
Au      33.58403657      42.99466871      57.15336984        7
Au      36.50438758      42.99466871      57.15336984        7
Au      39.42473859      42.99466871      57.15336984        7
Au      42.34508959      42.99466871      57.15336984        7
Au      45.26544060      42.99466871      57.15336984        7
Au      48.18579160      42.99466871      57.15336984        7
Au      51.10614261      42.99466871      57.15336984        7
Au      54.02649362      42.99466871      57.15336984        7
Au      56.94684462      42.99466871      57.15336984        7
Au      59.86719563      42.99466871      57.15336984        7
Au      62.78754664      42.99466871      57.15336984        7
Au      65.70789764      42.99466871      57.15336984        7
Au      68.62824865      42.99466871      57.15336984        7
Au      71.54859965      42.99466871      57.15336984        7
Au      74.46895066      42.99466871      57.15336984        7
Au      77.38930167      42.99466871      57.15336984        7
Au      80.30965267      42.99466871      57.15336984        7
Au      83.23000368      42.99466871      57.15336984        7
Au      86.15035469      42.99466871      57.15336984        7
Au      89.07070569      42.99466871      57.15336984        7
Au      91.99105670      42.99466871      57.15336984        7
Au      94.91140770      42.99466871      57.15336984        7
Au      97.83175871      42.99466871      57.15336984        7
Au     100.75210972      42.99466871      57.15336984        7
Au       0.00000000      45.52376687      57.15336984        7
Au       2.92035101      45.52376687      57.15336984        7
Au       5.84070201      45.52376687      57.15336984        7
Au       8.76105302      45.52376687      57.15336984        7
Au      11.68140403      45.52376687      57.15336984        7
Au      14.60175503      45.52376687      57.15336984        7
Au      17.52210604      45.52376687      57.15336984        7
Au      20.44245704      45.52376687      57.15336984        7
Au      23.36280805      45.52376687      57.15336984        7
Au      26.28315906      45.52376687      57.15336984        7
Au      29.20351006      45.52376687      57.15336984        7
Au      32.12386107      45.52376687      57.15336984        7
Au      35.04421208      45.52376687      57.15336984        7
Au      37.96456308      45.52376687      57.15336984        7
Au      40.88491409      45.52376687      57.15336984        7
Au      43.80526509      45.52376687      57.15336984        7
Au      46.72561610      45.52376687      57.15336984        7
Au      49.64596711      45.52376687      57.15336984        7
Au      52.56631811      45.52376687      57.15336984        7
Au      55.48666912      45.52376687      57.15336984        7
Au      58.40702013      45.52376687      57.15336984        7
Au      61.32737113      45.52376687      57.15336984        7
Au      64.24772214      45.52376687      57.15336984        7
Au      67.16807314      45.52376687      57.15336984        7
Au      70.08842415      45.52376687      57.15336984        7
Au      73.00877516      45.52376687      57.15336984        7
Au      75.92912616      45.52376687      57.15336984        7
Au      78.84947717      45.52376687      57.15336984        7
Au      81.76982818      45.52376687      57.15336984        7
Au      84.69017918      45.52376687      57.15336984        7
Au      87.61053019      45.52376687      57.15336984        7
Au      90.53088120      45.52376687      57.15336984        7
Au      93.45123220      45.52376687      57.15336984        7
Au      96.37158321      45.52376687      57.15336984        7
Au      99.29193421      45.52376687      57.15336984        7
Au       1.46017550      48.05286503      57.15336984        7
Au       4.38052651      48.05286503      57.15336984        7
Au       7.30087752      48.05286503      57.15336984        7
Au      10.22122852      48.05286503      57.15336984        7
Au      13.14157953      48.05286503      57.15336984        7
Au      16.06193053      48.05286503      57.15336984        7
Au      18.98228154      48.05286503      57.15336984        7
Au      21.90263255      48.05286503      57.15336984        7
Au      24.82298355      48.05286503      57.15336984        7
Au      27.74333456      48.05286503      57.15336984        7
Au      30.66368557      48.05286503      57.15336984        7
Au      33.58403657      48.05286503      57.15336984        7
Au      36.50438758      48.05286503      57.15336984        7
Au      39.42473859      48.05286503      57.15336984        7
Au      42.34508959      48.05286503      57.15336984        7
Au      45.26544060      48.05286503      57.15336984        7
Au      48.18579160      48.05286503      57.15336984        7
Au      51.10614261      48.05286503      57.15336984        7
Au      54.02649362      48.05286503      57.15336984        7
Au      56.94684462      48.05286503      57.15336984        7
Au      59.86719563      48.05286503      57.15336984        7
Au      62.78754664      48.05286503      57.15336984        7
Au      65.70789764      48.05286503      57.15336984        7
Au      68.62824865      48.05286503      57.15336984        7
Au      71.54859965      48.05286503      57.15336984        7
Au      74.46895066      48.05286503      57.15336984        7
Au      77.38930167      48.05286503      57.15336984        7
Au      80.30965267      48.05286503      57.15336984        7
Au      83.23000368      48.05286503      57.15336984        7
Au      86.15035469      48.05286503      57.15336984        7
Au      89.07070569      48.05286503      57.15336984        7
Au      91.99105670      48.05286503      57.15336984        7
Au      94.91140770      48.05286503      57.15336984        7
Au      97.83175871      48.05286503      57.15336984        7
Au     100.75210972      48.05286503      57.15336984        7
Au       1.46017550       0.84303272      59.53782645        6
Au       4.38052651       0.84303272      59.53782645        6
Au       7.30087752       0.84303272      59.53782645        6
Au      10.22122852       0.84303272      59.53782645        6
Au      13.14157953       0.84303272      59.53782645        6
Au      16.06193053       0.84303272      59.53782645        6
Au      18.98228154       0.84303272      59.53782645        6
Au      21.90263255       0.84303272      59.53782645        6
Au      24.82298355       0.84303272      59.53782645        6
Au      27.74333456       0.84303272      59.53782645        6
Au      30.66368557       0.84303272      59.53782645        6
Au      33.58403657       0.84303272      59.53782645        6
Au      36.50438758       0.84303272      59.53782645        6
Au      39.42473859       0.84303272      59.53782645        6
Au      42.34508959       0.84303272      59.53782645        6
Au      45.26544060       0.84303272      59.53782645        6
Au      48.18579160       0.84303272      59.53782645        6
Au      51.10614261       0.84303272      59.53782645        6
Au      54.02649362       0.84303272      59.53782645        6
Au      56.94684462       0.84303272      59.53782645        6
Au      59.86719563       0.84303272      59.53782645        6
Au      62.78754664       0.84303272      59.53782645        6
Au      65.70789764       0.84303272      59.53782645        6
Au      68.62824865       0.84303272      59.53782645        6
Au      71.54859965       0.84303272      59.53782645        6
Au      74.46895066       0.84303272      59.53782645        6
Au      77.38930167       0.84303272      59.53782645        6
Au      80.30965267       0.84303272      59.53782645        6
Au      83.23000368       0.84303272      59.53782645        6
Au      86.15035469       0.84303272      59.53782645        6
Au      89.07070569       0.84303272      59.53782645        6
Au      91.99105670       0.84303272      59.53782645        6
Au      94.91140770       0.84303272      59.53782645        6
Au      97.83175871       0.84303272      59.53782645        6
Au     100.75210972       0.84303272      59.53782645        6
Au       0.00000000       3.37213088      59.53782645        6
Au       2.92035101       3.37213088      59.53782645        6
Au       5.84070201       3.37213088      59.53782645        6
Au       8.76105302       3.37213088      59.53782645        6
Au      11.68140403       3.37213088      59.53782645        6
Au      14.60175503       3.37213088      59.53782645        6
Au      17.52210604       3.37213088      59.53782645        6
Au      20.44245704       3.37213088      59.53782645        6
Au      23.36280805       3.37213088      59.53782645        6
Au      26.28315906       3.37213088      59.53782645        6
Au      29.20351006       3.37213088      59.53782645        6
Au      32.12386107       3.37213088      59.53782645        6
Au      35.04421208       3.37213088      59.53782645        6
Au      37.96456308       3.37213088      59.53782645        6
Au      40.88491409       3.37213088      59.53782645        6
Au      43.80526509       3.37213088      59.53782645        6
Au      46.72561610       3.37213088      59.53782645        6
Au      49.64596711       3.37213088      59.53782645        6
Au      52.56631811       3.37213088      59.53782645        6
Au      55.48666912       3.37213088      59.53782645        6
Au      58.40702013       3.37213088      59.53782645        6
Au      61.32737113       3.37213088      59.53782645        6
Au      64.24772214       3.37213088      59.53782645        6
Au      67.16807314       3.37213088      59.53782645        6
Au      70.08842415       3.37213088      59.53782645        6
Au      73.00877516       3.37213088      59.53782645        6
Au      75.92912616       3.37213088      59.53782645        6
Au      78.84947717       3.37213088      59.53782645        6
Au      81.76982818       3.37213088      59.53782645        6
Au      84.69017918       3.37213088      59.53782645        6
Au      87.61053019       3.37213088      59.53782645        6
Au      90.53088120       3.37213088      59.53782645        6
Au      93.45123220       3.37213088      59.53782645        6
Au      96.37158321       3.37213088      59.53782645        6
Au      99.29193421       3.37213088      59.53782645        6
Au       1.46017550       5.90122904      59.53782645        6
Au       4.38052651       5.90122904      59.53782645        6
Au       7.30087752       5.90122904      59.53782645        6
Au      10.22122852       5.90122904      59.53782645        6
Au      13.14157953       5.90122904      59.53782645        6
Au      16.06193053       5.90122904      59.53782645        6
Au      18.98228154       5.90122904      59.53782645        6
Au      21.90263255       5.90122904      59.53782645        6
Au      24.82298355       5.90122904      59.53782645        6
Au      27.74333456       5.90122904      59.53782645        6
Au      30.66368557       5.90122904      59.53782645        6
Au      33.58403657       5.90122904      59.53782645        6
Au      36.50438758       5.90122904      59.53782645        6
Au      39.42473859       5.90122904      59.53782645        6
Au      42.34508959       5.90122904      59.53782645        6
Au      45.26544060       5.90122904      59.53782645        6
Au      48.18579160       5.90122904      59.53782645        6
Au      51.10614261       5.90122904      59.53782645        6
Au      54.02649362       5.90122904      59.53782645        6
Au      56.94684462       5.90122904      59.53782645        6
Au      59.86719563       5.90122904      59.53782645        6
Au      62.78754664       5.90122904      59.53782645        6
Au      65.70789764       5.90122904      59.53782645        6
Au      68.62824865       5.90122904      59.53782645        6
Au      71.54859965       5.90122904      59.53782645        6
Au      74.46895066       5.90122904      59.53782645        6
Au      77.38930167       5.90122904      59.53782645        6
Au      80.30965267       5.90122904      59.53782645        6
Au      83.23000368       5.90122904      59.53782645        6
Au      86.15035469       5.90122904      59.53782645        6
Au      89.07070569       5.90122904      59.53782645        6
Au      91.99105670       5.90122904      59.53782645        6
Au      94.91140770       5.90122904      59.53782645        6
Au      97.83175871       5.90122904      59.53782645        6
Au     100.75210972       5.90122904      59.53782645        6
Au       0.00000000       8.43032720      59.53782645        6
Au       2.92035101       8.43032720      59.53782645        6
Au       5.84070201       8.43032720      59.53782645        6
Au       8.76105302       8.43032720      59.53782645        6
Au      11.68140403       8.43032720      59.53782645        6
Au      14.60175503       8.43032720      59.53782645        6
Au      17.52210604       8.43032720      59.53782645        6
Au      20.44245704       8.43032720      59.53782645        6
Au      23.36280805       8.43032720      59.53782645        6
Au      26.28315906       8.43032720      59.53782645        6
Au      29.20351006       8.43032720      59.53782645        6
Au      32.12386107       8.43032720      59.53782645        6
Au      35.04421208       8.43032720      59.53782645        6
Au      37.96456308       8.43032720      59.53782645        6
Au      40.88491409       8.43032720      59.53782645        6
Au      43.80526509       8.43032720      59.53782645        6
Au      46.72561610       8.43032720      59.53782645        6
Au      49.64596711       8.43032720      59.53782645        6
Au      52.56631811       8.43032720      59.53782645        6
Au      55.48666912       8.43032720      59.53782645        6
Au      58.40702013       8.43032720      59.53782645        6
Au      61.32737113       8.43032720      59.53782645        6
Au      64.24772214       8.43032720      59.53782645        6
Au      67.16807314       8.43032720      59.53782645        6
Au      70.08842415       8.43032720      59.53782645        6
Au      73.00877516       8.43032720      59.53782645        6
Au      75.92912616       8.43032720      59.53782645        6
Au      78.84947717       8.43032720      59.53782645        6
Au      81.76982818       8.43032720      59.53782645        6
Au      84.69017918       8.43032720      59.53782645        6
Au      87.61053019       8.43032720      59.53782645        6
Au      90.53088120       8.43032720      59.53782645        6
Au      93.45123220       8.43032720      59.53782645        6
Au      96.37158321       8.43032720      59.53782645        6
Au      99.29193421       8.43032720      59.53782645        6
Au       1.46017550      10.95942536      59.53782645        6
Au       4.38052651      10.95942536      59.53782645        6
Au       7.30087752      10.95942536      59.53782645        6
Au      10.22122852      10.95942536      59.53782645        6
Au      13.14157953      10.95942536      59.53782645        6
Au      16.06193053      10.95942536      59.53782645        6
Au      18.98228154      10.95942536      59.53782645        6
Au      21.90263255      10.95942536      59.53782645        6
Au      24.82298355      10.95942536      59.53782645        6
Au      27.74333456      10.95942536      59.53782645        6
Au      30.66368557      10.95942536      59.53782645        6
Au      33.58403657      10.95942536      59.53782645        6
Au      36.50438758      10.95942536      59.53782645        6
Au      39.42473859      10.95942536      59.53782645        6
Au      42.34508959      10.95942536      59.53782645        6
Au      45.26544060      10.95942536      59.53782645        6
Au      48.18579160      10.95942536      59.53782645        6
Au      51.10614261      10.95942536      59.53782645        6
Au      54.02649362      10.95942536      59.53782645        6
Au      56.94684462      10.95942536      59.53782645        6
Au      59.86719563      10.95942536      59.53782645        6
Au      62.78754664      10.95942536      59.53782645        6
Au      65.70789764      10.95942536      59.53782645        6
Au      68.62824865      10.95942536      59.53782645        6
Au      71.54859965      10.95942536      59.53782645        6
Au      74.46895066      10.95942536      59.53782645        6
Au      77.38930167      10.95942536      59.53782645        6
Au      80.30965267      10.95942536      59.53782645        6
Au      83.23000368      10.95942536      59.53782645        6
Au      86.15035469      10.95942536      59.53782645        6
Au      89.07070569      10.95942536      59.53782645        6
Au      91.99105670      10.95942536      59.53782645        6
Au      94.91140770      10.95942536      59.53782645        6
Au      97.83175871      10.95942536      59.53782645        6
Au     100.75210972      10.95942536      59.53782645        6
Au       0.00000000      13.48852352      59.53782645        6
Au       2.92035101      13.48852352      59.53782645        6
Au       5.84070201      13.48852352      59.53782645        6
Au       8.76105302      13.48852352      59.53782645        6
Au      11.68140403      13.48852352      59.53782645        6
Au      14.60175503      13.48852352      59.53782645        6
Au      17.52210604      13.48852352      59.53782645        6
Au      20.44245704      13.48852352      59.53782645        6
Au      23.36280805      13.48852352      59.53782645        6
Au      26.28315906      13.48852352      59.53782645        6
Au      29.20351006      13.48852352      59.53782645        6
Au      32.12386107      13.48852352      59.53782645        6
Au      35.04421208      13.48852352      59.53782645        6
Au      37.96456308      13.48852352      59.53782645        6
Au      40.88491409      13.48852352      59.53782645        6
Au      43.80526509      13.48852352      59.53782645        6
Au      46.72561610      13.48852352      59.53782645        6
Au      49.64596711      13.48852352      59.53782645        6
Au      52.56631811      13.48852352      59.53782645        6
Au      55.48666912      13.48852352      59.53782645        6
Au      58.40702013      13.48852352      59.53782645        6
Au      61.32737113      13.48852352      59.53782645        6
Au      64.24772214      13.48852352      59.53782645        6
Au      67.16807314      13.48852352      59.53782645        6
Au      70.08842415      13.48852352      59.53782645        6
Au      73.00877516      13.48852352      59.53782645        6
Au      75.92912616      13.48852352      59.53782645        6
Au      78.84947717      13.48852352      59.53782645        6
Au      81.76982818      13.48852352      59.53782645        6
Au      84.69017918      13.48852352      59.53782645        6
Au      87.61053019      13.48852352      59.53782645        6
Au      90.53088120      13.48852352      59.53782645        6
Au      93.45123220      13.48852352      59.53782645        6
Au      96.37158321      13.48852352      59.53782645        6
Au      99.29193421      13.48852352      59.53782645        6
Au       1.46017550      16.01762168      59.53782645        6
Au       4.38052651      16.01762168      59.53782645        6
Au       7.30087752      16.01762168      59.53782645        6
Au      10.22122852      16.01762168      59.53782645        6
Au      13.14157953      16.01762168      59.53782645        6
Au      16.06193053      16.01762168      59.53782645        6
Au      18.98228154      16.01762168      59.53782645        6
Au      21.90263255      16.01762168      59.53782645        6
Au      24.82298355      16.01762168      59.53782645        6
Au      27.74333456      16.01762168      59.53782645        6
Au      30.66368557      16.01762168      59.53782645        6
Au      33.58403657      16.01762168      59.53782645        6
Au      36.50438758      16.01762168      59.53782645        6
Au      39.42473859      16.01762168      59.53782645        6
Au      42.34508959      16.01762168      59.53782645        6
Au      45.26544060      16.01762168      59.53782645        6
Au      48.18579160      16.01762168      59.53782645        6
Au      51.10614261      16.01762168      59.53782645        6
Au      54.02649362      16.01762168      59.53782645        6
Au      56.94684462      16.01762168      59.53782645        6
Au      59.86719563      16.01762168      59.53782645        6
Au      62.78754664      16.01762168      59.53782645        6
Au      65.70789764      16.01762168      59.53782645        6
Au      68.62824865      16.01762168      59.53782645        6
Au      71.54859965      16.01762168      59.53782645        6
Au      74.46895066      16.01762168      59.53782645        6
Au      77.38930167      16.01762168      59.53782645        6
Au      80.30965267      16.01762168      59.53782645        6
Au      83.23000368      16.01762168      59.53782645        6
Au      86.15035469      16.01762168      59.53782645        6
Au      89.07070569      16.01762168      59.53782645        6
Au      91.99105670      16.01762168      59.53782645        6
Au      94.91140770      16.01762168      59.53782645        6
Au      97.83175871      16.01762168      59.53782645        6
Au     100.75210972      16.01762168      59.53782645        6
Au       0.00000000      18.54671984      59.53782645        6
Au       2.92035101      18.54671984      59.53782645        6
Au       5.84070201      18.54671984      59.53782645        6
Au       8.76105302      18.54671984      59.53782645        6
Au      11.68140403      18.54671984      59.53782645        6
Au      14.60175503      18.54671984      59.53782645        6
Au      17.52210604      18.54671984      59.53782645        6
Au      20.44245704      18.54671984      59.53782645        6
Au      23.36280805      18.54671984      59.53782645        6
Au      26.28315906      18.54671984      59.53782645        6
Au      29.20351006      18.54671984      59.53782645        6
Au      32.12386107      18.54671984      59.53782645        6
Au      35.04421208      18.54671984      59.53782645        6
Au      37.96456308      18.54671984      59.53782645        6
Au      40.88491409      18.54671984      59.53782645        6
Au      43.80526509      18.54671984      59.53782645        6
Au      46.72561610      18.54671984      59.53782645        6
Au      49.64596711      18.54671984      59.53782645        6
Au      52.56631811      18.54671984      59.53782645        6
Au      55.48666912      18.54671984      59.53782645        6
Au      58.40702013      18.54671984      59.53782645        6
Au      61.32737113      18.54671984      59.53782645        6
Au      64.24772214      18.54671984      59.53782645        6
Au      67.16807314      18.54671984      59.53782645        6
Au      70.08842415      18.54671984      59.53782645        6
Au      73.00877516      18.54671984      59.53782645        6
Au      75.92912616      18.54671984      59.53782645        6
Au      78.84947717      18.54671984      59.53782645        6
Au      81.76982818      18.54671984      59.53782645        6
Au      84.69017918      18.54671984      59.53782645        6
Au      87.61053019      18.54671984      59.53782645        6
Au      90.53088120      18.54671984      59.53782645        6
Au      93.45123220      18.54671984      59.53782645        6
Au      96.37158321      18.54671984      59.53782645        6
Au      99.29193421      18.54671984      59.53782645        6
Au       1.46017550      21.07581800      59.53782645        6
Au       4.38052651      21.07581800      59.53782645        6
Au       7.30087752      21.07581800      59.53782645        6
Au      10.22122852      21.07581800      59.53782645        6
Au      13.14157953      21.07581800      59.53782645        6
Au      16.06193053      21.07581800      59.53782645        6
Au      18.98228154      21.07581800      59.53782645        6
Au      21.90263255      21.07581800      59.53782645        6
Au      24.82298355      21.07581800      59.53782645        6
Au      27.74333456      21.07581800      59.53782645        6
Au      30.66368557      21.07581800      59.53782645        6
Au      33.58403657      21.07581800      59.53782645        6
Au      36.50438758      21.07581800      59.53782645        6
Au      39.42473859      21.07581800      59.53782645        6
Au      42.34508959      21.07581800      59.53782645        6
Au      45.26544060      21.07581800      59.53782645        6
Au      48.18579160      21.07581800      59.53782645        6
Au      51.10614261      21.07581800      59.53782645        6
Au      54.02649362      21.07581800      59.53782645        6
Au      56.94684462      21.07581800      59.53782645        6
Au      59.86719563      21.07581800      59.53782645        6
Au      62.78754664      21.07581800      59.53782645        6
Au      65.70789764      21.07581800      59.53782645        6
Au      68.62824865      21.07581800      59.53782645        6
Au      71.54859965      21.07581800      59.53782645        6
Au      74.46895066      21.07581800      59.53782645        6
Au      77.38930167      21.07581800      59.53782645        6
Au      80.30965267      21.07581800      59.53782645        6
Au      83.23000368      21.07581800      59.53782645        6
Au      86.15035469      21.07581800      59.53782645        6
Au      89.07070569      21.07581800      59.53782645        6
Au      91.99105670      21.07581800      59.53782645        6
Au      94.91140770      21.07581800      59.53782645        6
Au      97.83175871      21.07581800      59.53782645        6
Au     100.75210972      21.07581800      59.53782645        6
Au       0.00000000      23.60491615      59.53782645        6
Au       2.92035101      23.60491615      59.53782645        6
Au       5.84070201      23.60491615      59.53782645        6
Au       8.76105302      23.60491615      59.53782645        6
Au      11.68140403      23.60491615      59.53782645        6
Au      14.60175503      23.60491615      59.53782645        6
Au      17.52210604      23.60491615      59.53782645        6
Au      20.44245704      23.60491615      59.53782645        6
Au      23.36280805      23.60491615      59.53782645        6
Au      26.28315906      23.60491615      59.53782645        6
Au      29.20351006      23.60491615      59.53782645        6
Au      32.12386107      23.60491615      59.53782645        6
Au      35.04421208      23.60491615      59.53782645        6
Au      37.96456308      23.60491615      59.53782645        6
Au      40.88491409      23.60491615      59.53782645        6
Au      43.80526509      23.60491615      59.53782645        6
Au      46.72561610      23.60491615      59.53782645        6
Au      49.64596711      23.60491615      59.53782645        6
Au      52.56631811      23.60491615      59.53782645        6
Au      55.48666912      23.60491615      59.53782645        6
Au      58.40702013      23.60491615      59.53782645        6
Au      61.32737113      23.60491615      59.53782645        6
Au      64.24772214      23.60491615      59.53782645        6
Au      67.16807314      23.60491615      59.53782645        6
Au      70.08842415      23.60491615      59.53782645        6
Au      73.00877516      23.60491615      59.53782645        6
Au      75.92912616      23.60491615      59.53782645        6
Au      78.84947717      23.60491615      59.53782645        6
Au      81.76982818      23.60491615      59.53782645        6
Au      84.69017918      23.60491615      59.53782645        6
Au      87.61053019      23.60491615      59.53782645        6
Au      90.53088120      23.60491615      59.53782645        6
Au      93.45123220      23.60491615      59.53782645        6
Au      96.37158321      23.60491615      59.53782645        6
Au      99.29193421      23.60491615      59.53782645        6
Au       1.46017550      26.13401431      59.53782645        6
Au       4.38052651      26.13401431      59.53782645        6
Au       7.30087752      26.13401431      59.53782645        6
Au      10.22122852      26.13401431      59.53782645        6
Au      13.14157953      26.13401431      59.53782645        6
Au      16.06193053      26.13401431      59.53782645        6
Au      18.98228154      26.13401431      59.53782645        6
Au      21.90263255      26.13401431      59.53782645        6
Au      24.82298355      26.13401431      59.53782645        6
Au      27.74333456      26.13401431      59.53782645        6
Au      30.66368557      26.13401431      59.53782645        6
Au      33.58403657      26.13401431      59.53782645        6
Au      36.50438758      26.13401431      59.53782645        6
Au      39.42473859      26.13401431      59.53782645        6
Au      42.34508959      26.13401431      59.53782645        6
Au      45.26544060      26.13401431      59.53782645        6
Au      48.18579160      26.13401431      59.53782645        6
Au      51.10614261      26.13401431      59.53782645        6
Au      54.02649362      26.13401431      59.53782645        6
Au      56.94684462      26.13401431      59.53782645        6
Au      59.86719563      26.13401431      59.53782645        6
Au      62.78754664      26.13401431      59.53782645        6
Au      65.70789764      26.13401431      59.53782645        6
Au      68.62824865      26.13401431      59.53782645        6
Au      71.54859965      26.13401431      59.53782645        6
Au      74.46895066      26.13401431      59.53782645        6
Au      77.38930167      26.13401431      59.53782645        6
Au      80.30965267      26.13401431      59.53782645        6
Au      83.23000368      26.13401431      59.53782645        6
Au      86.15035469      26.13401431      59.53782645        6
Au      89.07070569      26.13401431      59.53782645        6
Au      91.99105670      26.13401431      59.53782645        6
Au      94.91140770      26.13401431      59.53782645        6
Au      97.83175871      26.13401431      59.53782645        6
Au     100.75210972      26.13401431      59.53782645        6
Au       0.00000000      28.66311247      59.53782645        6
Au       2.92035101      28.66311247      59.53782645        6
Au       5.84070201      28.66311247      59.53782645        6
Au       8.76105302      28.66311247      59.53782645        6
Au      11.68140403      28.66311247      59.53782645        6
Au      14.60175503      28.66311247      59.53782645        6
Au      17.52210604      28.66311247      59.53782645        6
Au      20.44245704      28.66311247      59.53782645        6
Au      23.36280805      28.66311247      59.53782645        6
Au      26.28315906      28.66311247      59.53782645        6
Au      29.20351006      28.66311247      59.53782645        6
Au      32.12386107      28.66311247      59.53782645        6
Au      35.04421208      28.66311247      59.53782645        6
Au      37.96456308      28.66311247      59.53782645        6
Au      40.88491409      28.66311247      59.53782645        6
Au      43.80526509      28.66311247      59.53782645        6
Au      46.72561610      28.66311247      59.53782645        6
Au      49.64596711      28.66311247      59.53782645        6
Au      52.56631811      28.66311247      59.53782645        6
Au      55.48666912      28.66311247      59.53782645        6
Au      58.40702013      28.66311247      59.53782645        6
Au      61.32737113      28.66311247      59.53782645        6
Au      64.24772214      28.66311247      59.53782645        6
Au      67.16807314      28.66311247      59.53782645        6
Au      70.08842415      28.66311247      59.53782645        6
Au      73.00877516      28.66311247      59.53782645        6
Au      75.92912616      28.66311247      59.53782645        6
Au      78.84947717      28.66311247      59.53782645        6
Au      81.76982818      28.66311247      59.53782645        6
Au      84.69017918      28.66311247      59.53782645        6
Au      87.61053019      28.66311247      59.53782645        6
Au      90.53088120      28.66311247      59.53782645        6
Au      93.45123220      28.66311247      59.53782645        6
Au      96.37158321      28.66311247      59.53782645        6
Au      99.29193421      28.66311247      59.53782645        6
Au       1.46017550      31.19221063      59.53782645        6
Au       4.38052651      31.19221063      59.53782645        6
Au       7.30087752      31.19221063      59.53782645        6
Au      10.22122852      31.19221063      59.53782645        6
Au      13.14157953      31.19221063      59.53782645        6
Au      16.06193053      31.19221063      59.53782645        6
Au      18.98228154      31.19221063      59.53782645        6
Au      21.90263255      31.19221063      59.53782645        6
Au      24.82298355      31.19221063      59.53782645        6
Au      27.74333456      31.19221063      59.53782645        6
Au      30.66368557      31.19221063      59.53782645        6
Au      33.58403657      31.19221063      59.53782645        6
Au      36.50438758      31.19221063      59.53782645        6
Au      39.42473859      31.19221063      59.53782645        6
Au      42.34508959      31.19221063      59.53782645        6
Au      45.26544060      31.19221063      59.53782645        6
Au      48.18579160      31.19221063      59.53782645        6
Au      51.10614261      31.19221063      59.53782645        6
Au      54.02649362      31.19221063      59.53782645        6
Au      56.94684462      31.19221063      59.53782645        6
Au      59.86719563      31.19221063      59.53782645        6
Au      62.78754664      31.19221063      59.53782645        6
Au      65.70789764      31.19221063      59.53782645        6
Au      68.62824865      31.19221063      59.53782645        6
Au      71.54859965      31.19221063      59.53782645        6
Au      74.46895066      31.19221063      59.53782645        6
Au      77.38930167      31.19221063      59.53782645        6
Au      80.30965267      31.19221063      59.53782645        6
Au      83.23000368      31.19221063      59.53782645        6
Au      86.15035469      31.19221063      59.53782645        6
Au      89.07070569      31.19221063      59.53782645        6
Au      91.99105670      31.19221063      59.53782645        6
Au      94.91140770      31.19221063      59.53782645        6
Au      97.83175871      31.19221063      59.53782645        6
Au     100.75210972      31.19221063      59.53782645        6
Au       0.00000000      33.72130879      59.53782645        6
Au       2.92035101      33.72130879      59.53782645        6
Au       5.84070201      33.72130879      59.53782645        6
Au       8.76105302      33.72130879      59.53782645        6
Au      11.68140403      33.72130879      59.53782645        6
Au      14.60175503      33.72130879      59.53782645        6
Au      17.52210604      33.72130879      59.53782645        6
Au      20.44245704      33.72130879      59.53782645        6
Au      23.36280805      33.72130879      59.53782645        6
Au      26.28315906      33.72130879      59.53782645        6
Au      29.20351006      33.72130879      59.53782645        6
Au      32.12386107      33.72130879      59.53782645        6
Au      35.04421208      33.72130879      59.53782645        6
Au      37.96456308      33.72130879      59.53782645        6
Au      40.88491409      33.72130879      59.53782645        6
Au      43.80526509      33.72130879      59.53782645        6
Au      46.72561610      33.72130879      59.53782645        6
Au      49.64596711      33.72130879      59.53782645        6
Au      52.56631811      33.72130879      59.53782645        6
Au      55.48666912      33.72130879      59.53782645        6
Au      58.40702013      33.72130879      59.53782645        6
Au      61.32737113      33.72130879      59.53782645        6
Au      64.24772214      33.72130879      59.53782645        6
Au      67.16807314      33.72130879      59.53782645        6
Au      70.08842415      33.72130879      59.53782645        6
Au      73.00877516      33.72130879      59.53782645        6
Au      75.92912616      33.72130879      59.53782645        6
Au      78.84947717      33.72130879      59.53782645        6
Au      81.76982818      33.72130879      59.53782645        6
Au      84.69017918      33.72130879      59.53782645        6
Au      87.61053019      33.72130879      59.53782645        6
Au      90.53088120      33.72130879      59.53782645        6
Au      93.45123220      33.72130879      59.53782645        6
Au      96.37158321      33.72130879      59.53782645        6
Au      99.29193421      33.72130879      59.53782645        6
Au       1.46017550      36.25040695      59.53782645        6
Au       4.38052651      36.25040695      59.53782645        6
Au       7.30087752      36.25040695      59.53782645        6
Au      10.22122852      36.25040695      59.53782645        6
Au      13.14157953      36.25040695      59.53782645        6
Au      16.06193053      36.25040695      59.53782645        6
Au      18.98228154      36.25040695      59.53782645        6
Au      21.90263255      36.25040695      59.53782645        6
Au      24.82298355      36.25040695      59.53782645        6
Au      27.74333456      36.25040695      59.53782645        6
Au      30.66368557      36.25040695      59.53782645        6
Au      33.58403657      36.25040695      59.53782645        6
Au      36.50438758      36.25040695      59.53782645        6
Au      39.42473859      36.25040695      59.53782645        6
Au      42.34508959      36.25040695      59.53782645        6
Au      45.26544060      36.25040695      59.53782645        6
Au      48.18579160      36.25040695      59.53782645        6
Au      51.10614261      36.25040695      59.53782645        6
Au      54.02649362      36.25040695      59.53782645        6
Au      56.94684462      36.25040695      59.53782645        6
Au      59.86719563      36.25040695      59.53782645        6
Au      62.78754664      36.25040695      59.53782645        6
Au      65.70789764      36.25040695      59.53782645        6
Au      68.62824865      36.25040695      59.53782645        6
Au      71.54859965      36.25040695      59.53782645        6
Au      74.46895066      36.25040695      59.53782645        6
Au      77.38930167      36.25040695      59.53782645        6
Au      80.30965267      36.25040695      59.53782645        6
Au      83.23000368      36.25040695      59.53782645        6
Au      86.15035469      36.25040695      59.53782645        6
Au      89.07070569      36.25040695      59.53782645        6
Au      91.99105670      36.25040695      59.53782645        6
Au      94.91140770      36.25040695      59.53782645        6
Au      97.83175871      36.25040695      59.53782645        6
Au     100.75210972      36.25040695      59.53782645        6
Au       0.00000000      38.77950511      59.53782645        6
Au       2.92035101      38.77950511      59.53782645        6
Au       5.84070201      38.77950511      59.53782645        6
Au       8.76105302      38.77950511      59.53782645        6
Au      11.68140403      38.77950511      59.53782645        6
Au      14.60175503      38.77950511      59.53782645        6
Au      17.52210604      38.77950511      59.53782645        6
Au      20.44245704      38.77950511      59.53782645        6
Au      23.36280805      38.77950511      59.53782645        6
Au      26.28315906      38.77950511      59.53782645        6
Au      29.20351006      38.77950511      59.53782645        6
Au      32.12386107      38.77950511      59.53782645        6
Au      35.04421208      38.77950511      59.53782645        6
Au      37.96456308      38.77950511      59.53782645        6
Au      40.88491409      38.77950511      59.53782645        6
Au      43.80526509      38.77950511      59.53782645        6
Au      46.72561610      38.77950511      59.53782645        6
Au      49.64596711      38.77950511      59.53782645        6
Au      52.56631811      38.77950511      59.53782645        6
Au      55.48666912      38.77950511      59.53782645        6
Au      58.40702013      38.77950511      59.53782645        6
Au      61.32737113      38.77950511      59.53782645        6
Au      64.24772214      38.77950511      59.53782645        6
Au      67.16807314      38.77950511      59.53782645        6
Au      70.08842415      38.77950511      59.53782645        6
Au      73.00877516      38.77950511      59.53782645        6
Au      75.92912616      38.77950511      59.53782645        6
Au      78.84947717      38.77950511      59.53782645        6
Au      81.76982818      38.77950511      59.53782645        6
Au      84.69017918      38.77950511      59.53782645        6
Au      87.61053019      38.77950511      59.53782645        6
Au      90.53088120      38.77950511      59.53782645        6
Au      93.45123220      38.77950511      59.53782645        6
Au      96.37158321      38.77950511      59.53782645        6
Au      99.29193421      38.77950511      59.53782645        6
Au       1.46017550      41.30860327      59.53782645        6
Au       4.38052651      41.30860327      59.53782645        6
Au       7.30087752      41.30860327      59.53782645        6
Au      10.22122852      41.30860327      59.53782645        6
Au      13.14157953      41.30860327      59.53782645        6
Au      16.06193053      41.30860327      59.53782645        6
Au      18.98228154      41.30860327      59.53782645        6
Au      21.90263255      41.30860327      59.53782645        6
Au      24.82298355      41.30860327      59.53782645        6
Au      27.74333456      41.30860327      59.53782645        6
Au      30.66368557      41.30860327      59.53782645        6
Au      33.58403657      41.30860327      59.53782645        6
Au      36.50438758      41.30860327      59.53782645        6
Au      39.42473859      41.30860327      59.53782645        6
Au      42.34508959      41.30860327      59.53782645        6
Au      45.26544060      41.30860327      59.53782645        6
Au      48.18579160      41.30860327      59.53782645        6
Au      51.10614261      41.30860327      59.53782645        6
Au      54.02649362      41.30860327      59.53782645        6
Au      56.94684462      41.30860327      59.53782645        6
Au      59.86719563      41.30860327      59.53782645        6
Au      62.78754664      41.30860327      59.53782645        6
Au      65.70789764      41.30860327      59.53782645        6
Au      68.62824865      41.30860327      59.53782645        6
Au      71.54859965      41.30860327      59.53782645        6
Au      74.46895066      41.30860327      59.53782645        6
Au      77.38930167      41.30860327      59.53782645        6
Au      80.30965267      41.30860327      59.53782645        6
Au      83.23000368      41.30860327      59.53782645        6
Au      86.15035469      41.30860327      59.53782645        6
Au      89.07070569      41.30860327      59.53782645        6
Au      91.99105670      41.30860327      59.53782645        6
Au      94.91140770      41.30860327      59.53782645        6
Au      97.83175871      41.30860327      59.53782645        6
Au     100.75210972      41.30860327      59.53782645        6
Au       0.00000000      43.83770143      59.53782645        6
Au       2.92035101      43.83770143      59.53782645        6
Au       5.84070201      43.83770143      59.53782645        6
Au       8.76105302      43.83770143      59.53782645        6
Au      11.68140403      43.83770143      59.53782645        6
Au      14.60175503      43.83770143      59.53782645        6
Au      17.52210604      43.83770143      59.53782645        6
Au      20.44245704      43.83770143      59.53782645        6
Au      23.36280805      43.83770143      59.53782645        6
Au      26.28315906      43.83770143      59.53782645        6
Au      29.20351006      43.83770143      59.53782645        6
Au      32.12386107      43.83770143      59.53782645        6
Au      35.04421208      43.83770143      59.53782645        6
Au      37.96456308      43.83770143      59.53782645        6
Au      40.88491409      43.83770143      59.53782645        6
Au      43.80526509      43.83770143      59.53782645        6
Au      46.72561610      43.83770143      59.53782645        6
Au      49.64596711      43.83770143      59.53782645        6
Au      52.56631811      43.83770143      59.53782645        6
Au      55.48666912      43.83770143      59.53782645        6
Au      58.40702013      43.83770143      59.53782645        6
Au      61.32737113      43.83770143      59.53782645        6
Au      64.24772214      43.83770143      59.53782645        6
Au      67.16807314      43.83770143      59.53782645        6
Au      70.08842415      43.83770143      59.53782645        6
Au      73.00877516      43.83770143      59.53782645        6
Au      75.92912616      43.83770143      59.53782645        6
Au      78.84947717      43.83770143      59.53782645        6
Au      81.76982818      43.83770143      59.53782645        6
Au      84.69017918      43.83770143      59.53782645        6
Au      87.61053019      43.83770143      59.53782645        6
Au      90.53088120      43.83770143      59.53782645        6
Au      93.45123220      43.83770143      59.53782645        6
Au      96.37158321      43.83770143      59.53782645        6
Au      99.29193421      43.83770143      59.53782645        6
Au       1.46017550      46.36679959      59.53782645        6
Au       4.38052651      46.36679959      59.53782645        6
Au       7.30087752      46.36679959      59.53782645        6
Au      10.22122852      46.36679959      59.53782645        6
Au      13.14157953      46.36679959      59.53782645        6
Au      16.06193053      46.36679959      59.53782645        6
Au      18.98228154      46.36679959      59.53782645        6
Au      21.90263255      46.36679959      59.53782645        6
Au      24.82298355      46.36679959      59.53782645        6
Au      27.74333456      46.36679959      59.53782645        6
Au      30.66368557      46.36679959      59.53782645        6
Au      33.58403657      46.36679959      59.53782645        6
Au      36.50438758      46.36679959      59.53782645        6
Au      39.42473859      46.36679959      59.53782645        6
Au      42.34508959      46.36679959      59.53782645        6
Au      45.26544060      46.36679959      59.53782645        6
Au      48.18579160      46.36679959      59.53782645        6
Au      51.10614261      46.36679959      59.53782645        6
Au      54.02649362      46.36679959      59.53782645        6
Au      56.94684462      46.36679959      59.53782645        6
Au      59.86719563      46.36679959      59.53782645        6
Au      62.78754664      46.36679959      59.53782645        6
Au      65.70789764      46.36679959      59.53782645        6
Au      68.62824865      46.36679959      59.53782645        6
Au      71.54859965      46.36679959      59.53782645        6
Au      74.46895066      46.36679959      59.53782645        6
Au      77.38930167      46.36679959      59.53782645        6
Au      80.30965267      46.36679959      59.53782645        6
Au      83.23000368      46.36679959      59.53782645        6
Au      86.15035469      46.36679959      59.53782645        6
Au      89.07070569      46.36679959      59.53782645        6
Au      91.99105670      46.36679959      59.53782645        6
Au      94.91140770      46.36679959      59.53782645        6
Au      97.83175871      46.36679959      59.53782645        6
Au     100.75210972      46.36679959      59.53782645        6
Au       0.00000000      48.89589775      59.53782645        6
Au       2.92035101      48.89589775      59.53782645        6
Au       5.84070201      48.89589775      59.53782645        6
Au       8.76105302      48.89589775      59.53782645        6
Au      11.68140403      48.89589775      59.53782645        6
Au      14.60175503      48.89589775      59.53782645        6
Au      17.52210604      48.89589775      59.53782645        6
Au      20.44245704      48.89589775      59.53782645        6
Au      23.36280805      48.89589775      59.53782645        6
Au      26.28315906      48.89589775      59.53782645        6
Au      29.20351006      48.89589775      59.53782645        6
Au      32.12386107      48.89589775      59.53782645        6
Au      35.04421208      48.89589775      59.53782645        6
Au      37.96456308      48.89589775      59.53782645        6
Au      40.88491409      48.89589775      59.53782645        6
Au      43.80526509      48.89589775      59.53782645        6
Au      46.72561610      48.89589775      59.53782645        6
Au      49.64596711      48.89589775      59.53782645        6
Au      52.56631811      48.89589775      59.53782645        6
Au      55.48666912      48.89589775      59.53782645        6
Au      58.40702013      48.89589775      59.53782645        6
Au      61.32737113      48.89589775      59.53782645        6
Au      64.24772214      48.89589775      59.53782645        6
Au      67.16807314      48.89589775      59.53782645        6
Au      70.08842415      48.89589775      59.53782645        6
Au      73.00877516      48.89589775      59.53782645        6
Au      75.92912616      48.89589775      59.53782645        6
Au      78.84947717      48.89589775      59.53782645        6
Au      81.76982818      48.89589775      59.53782645        6
Au      84.69017918      48.89589775      59.53782645        6
Au      87.61053019      48.89589775      59.53782645        6
Au      90.53088120      48.89589775      59.53782645        6
Au      93.45123220      48.89589775      59.53782645        6
Au      96.37158321      48.89589775      59.53782645        6
Au      99.29193421      48.89589775      59.53782645        6
Au       0.00000000       1.68606544      61.92228306        5
Au       2.92035101       1.68606544      61.92228306        5
Au       5.84070201       1.68606544      61.92228306        5
Au       8.76105302       1.68606544      61.92228306        5
Au      11.68140403       1.68606544      61.92228306        5
Au      14.60175503       1.68606544      61.92228306        5
Au      17.52210604       1.68606544      61.92228306        5
Au      20.44245704       1.68606544      61.92228306        5
Au      23.36280805       1.68606544      61.92228306        5
Au      26.28315906       1.68606544      61.92228306        5
Au      29.20351006       1.68606544      61.92228306        5
Au      32.12386107       1.68606544      61.92228306        5
Au      35.04421208       1.68606544      61.92228306        5
Au      37.96456308       1.68606544      61.92228306        5
Au      40.88491409       1.68606544      61.92228306        5
Au      43.80526509       1.68606544      61.92228306        5
Au      46.72561610       1.68606544      61.92228306        5
Au      49.64596711       1.68606544      61.92228306        5
Au      52.56631811       1.68606544      61.92228306        5
Au      55.48666912       1.68606544      61.92228306        5
Au      58.40702013       1.68606544      61.92228306        5
Au      61.32737113       1.68606544      61.92228306        5
Au      64.24772214       1.68606544      61.92228306        5
Au      67.16807314       1.68606544      61.92228306        5
Au      70.08842415       1.68606544      61.92228306        5
Au      73.00877516       1.68606544      61.92228306        5
Au      75.92912616       1.68606544      61.92228306        5
Au      78.84947717       1.68606544      61.92228306        5
Au      81.76982818       1.68606544      61.92228306        5
Au      84.69017918       1.68606544      61.92228306        5
Au      87.61053019       1.68606544      61.92228306        5
Au      90.53088120       1.68606544      61.92228306        5
Au      93.45123220       1.68606544      61.92228306        5
Au      96.37158321       1.68606544      61.92228306        5
Au      99.29193421       1.68606544      61.92228306        5
Au       1.46017550       4.21516360      61.92228306        5
Au       4.38052651       4.21516360      61.92228306        5
Au       7.30087752       4.21516360      61.92228306        5
Au      10.22122852       4.21516360      61.92228306        5
Au      13.14157953       4.21516360      61.92228306        5
Au      16.06193053       4.21516360      61.92228306        5
Au      18.98228154       4.21516360      61.92228306        5
Au      21.90263255       4.21516360      61.92228306        5
Au      24.82298355       4.21516360      61.92228306        5
Au      27.74333456       4.21516360      61.92228306        5
Au      30.66368557       4.21516360      61.92228306        5
Au      33.58403657       4.21516360      61.92228306        5
Au      36.50438758       4.21516360      61.92228306        5
Au      39.42473859       4.21516360      61.92228306        5
Au      42.34508959       4.21516360      61.92228306        5
Au      45.26544060       4.21516360      61.92228306        5
Au      48.18579160       4.21516360      61.92228306        5
Au      51.10614261       4.21516360      61.92228306        5
Au      54.02649362       4.21516360      61.92228306        5
Au      56.94684462       4.21516360      61.92228306        5
Au      59.86719563       4.21516360      61.92228306        5
Au      62.78754664       4.21516360      61.92228306        5
Au      65.70789764       4.21516360      61.92228306        5
Au      68.62824865       4.21516360      61.92228306        5
Au      71.54859965       4.21516360      61.92228306        5
Au      74.46895066       4.21516360      61.92228306        5
Au      77.38930167       4.21516360      61.92228306        5
Au      80.30965267       4.21516360      61.92228306        5
Au      83.23000368       4.21516360      61.92228306        5
Au      86.15035469       4.21516360      61.92228306        5
Au      89.07070569       4.21516360      61.92228306        5
Au      91.99105670       4.21516360      61.92228306        5
Au      94.91140770       4.21516360      61.92228306        5
Au      97.83175871       4.21516360      61.92228306        5
Au     100.75210972       4.21516360      61.92228306        5
Au       0.00000000       6.74426176      61.92228306        5
Au       2.92035101       6.74426176      61.92228306        5
Au       5.84070201       6.74426176      61.92228306        5
Au       8.76105302       6.74426176      61.92228306        5
Au      11.68140403       6.74426176      61.92228306        5
Au      14.60175503       6.74426176      61.92228306        5
Au      17.52210604       6.74426176      61.92228306        5
Au      20.44245704       6.74426176      61.92228306        5
Au      23.36280805       6.74426176      61.92228306        5
Au      26.28315906       6.74426176      61.92228306        5
Au      29.20351006       6.74426176      61.92228306        5
Au      32.12386107       6.74426176      61.92228306        5
Au      35.04421208       6.74426176      61.92228306        5
Au      37.96456308       6.74426176      61.92228306        5
Au      40.88491409       6.74426176      61.92228306        5
Au      43.80526509       6.74426176      61.92228306        5
Au      46.72561610       6.74426176      61.92228306        5
Au      49.64596711       6.74426176      61.92228306        5
Au      52.56631811       6.74426176      61.92228306        5
Au      55.48666912       6.74426176      61.92228306        5
Au      58.40702013       6.74426176      61.92228306        5
Au      61.32737113       6.74426176      61.92228306        5
Au      64.24772214       6.74426176      61.92228306        5
Au      67.16807314       6.74426176      61.92228306        5
Au      70.08842415       6.74426176      61.92228306        5
Au      73.00877516       6.74426176      61.92228306        5
Au      75.92912616       6.74426176      61.92228306        5
Au      78.84947717       6.74426176      61.92228306        5
Au      81.76982818       6.74426176      61.92228306        5
Au      84.69017918       6.74426176      61.92228306        5
Au      87.61053019       6.74426176      61.92228306        5
Au      90.53088120       6.74426176      61.92228306        5
Au      93.45123220       6.74426176      61.92228306        5
Au      96.37158321       6.74426176      61.92228306        5
Au      99.29193421       6.74426176      61.92228306        5
Au       1.46017550       9.27335992      61.92228306        5
Au       4.38052651       9.27335992      61.92228306        5
Au       7.30087752       9.27335992      61.92228306        5
Au      10.22122852       9.27335992      61.92228306        5
Au      13.14157953       9.27335992      61.92228306        5
Au      16.06193053       9.27335992      61.92228306        5
Au      18.98228154       9.27335992      61.92228306        5
Au      21.90263255       9.27335992      61.92228306        5
Au      24.82298355       9.27335992      61.92228306        5
Au      27.74333456       9.27335992      61.92228306        5
Au      30.66368557       9.27335992      61.92228306        5
Au      33.58403657       9.27335992      61.92228306        5
Au      36.50438758       9.27335992      61.92228306        5
Au      39.42473859       9.27335992      61.92228306        5
Au      42.34508959       9.27335992      61.92228306        5
Au      45.26544060       9.27335992      61.92228306        5
Au      48.18579160       9.27335992      61.92228306        5
Au      51.10614261       9.27335992      61.92228306        5
Au      54.02649362       9.27335992      61.92228306        5
Au      56.94684462       9.27335992      61.92228306        5
Au      59.86719563       9.27335992      61.92228306        5
Au      62.78754664       9.27335992      61.92228306        5
Au      65.70789764       9.27335992      61.92228306        5
Au      68.62824865       9.27335992      61.92228306        5
Au      71.54859965       9.27335992      61.92228306        5
Au      74.46895066       9.27335992      61.92228306        5
Au      77.38930167       9.27335992      61.92228306        5
Au      80.30965267       9.27335992      61.92228306        5
Au      83.23000368       9.27335992      61.92228306        5
Au      86.15035469       9.27335992      61.92228306        5
Au      89.07070569       9.27335992      61.92228306        5
Au      91.99105670       9.27335992      61.92228306        5
Au      94.91140770       9.27335992      61.92228306        5
Au      97.83175871       9.27335992      61.92228306        5
Au     100.75210972       9.27335992      61.92228306        5
Au       0.00000000      11.80245808      61.92228306        5
Au       2.92035101      11.80245808      61.92228306        5
Au       5.84070201      11.80245808      61.92228306        5
Au       8.76105302      11.80245808      61.92228306        5
Au      11.68140403      11.80245808      61.92228306        5
Au      14.60175503      11.80245808      61.92228306        5
Au      17.52210604      11.80245808      61.92228306        5
Au      20.44245704      11.80245808      61.92228306        5
Au      23.36280805      11.80245808      61.92228306        5
Au      26.28315906      11.80245808      61.92228306        5
Au      29.20351006      11.80245808      61.92228306        5
Au      32.12386107      11.80245808      61.92228306        5
Au      35.04421208      11.80245808      61.92228306        5
Au      37.96456308      11.80245808      61.92228306        5
Au      40.88491409      11.80245808      61.92228306        5
Au      43.80526509      11.80245808      61.92228306        5
Au      46.72561610      11.80245808      61.92228306        5
Au      49.64596711      11.80245808      61.92228306        5
Au      52.56631811      11.80245808      61.92228306        5
Au      55.48666912      11.80245808      61.92228306        5
Au      58.40702013      11.80245808      61.92228306        5
Au      61.32737113      11.80245808      61.92228306        5
Au      64.24772214      11.80245808      61.92228306        5
Au      67.16807314      11.80245808      61.92228306        5
Au      70.08842415      11.80245808      61.92228306        5
Au      73.00877516      11.80245808      61.92228306        5
Au      75.92912616      11.80245808      61.92228306        5
Au      78.84947717      11.80245808      61.92228306        5
Au      81.76982818      11.80245808      61.92228306        5
Au      84.69017918      11.80245808      61.92228306        5
Au      87.61053019      11.80245808      61.92228306        5
Au      90.53088120      11.80245808      61.92228306        5
Au      93.45123220      11.80245808      61.92228306        5
Au      96.37158321      11.80245808      61.92228306        5
Au      99.29193421      11.80245808      61.92228306        5
Au       1.46017550      14.33155624      61.92228306        5
Au       4.38052651      14.33155624      61.92228306        5
Au       7.30087752      14.33155624      61.92228306        5
Au      10.22122852      14.33155624      61.92228306        5
Au      13.14157953      14.33155624      61.92228306        5
Au      16.06193053      14.33155624      61.92228306        5
Au      18.98228154      14.33155624      61.92228306        5
Au      21.90263255      14.33155624      61.92228306        5
Au      24.82298355      14.33155624      61.92228306        5
Au      27.74333456      14.33155624      61.92228306        5
Au      30.66368557      14.33155624      61.92228306        5
Au      33.58403657      14.33155624      61.92228306        5
Au      36.50438758      14.33155624      61.92228306        5
Au      39.42473859      14.33155624      61.92228306        5
Au      42.34508959      14.33155624      61.92228306        5
Au      45.26544060      14.33155624      61.92228306        5
Au      48.18579160      14.33155624      61.92228306        5
Au      51.10614261      14.33155624      61.92228306        5
Au      54.02649362      14.33155624      61.92228306        5
Au      56.94684462      14.33155624      61.92228306        5
Au      59.86719563      14.33155624      61.92228306        5
Au      62.78754664      14.33155624      61.92228306        5
Au      65.70789764      14.33155624      61.92228306        5
Au      68.62824865      14.33155624      61.92228306        5
Au      71.54859965      14.33155624      61.92228306        5
Au      74.46895066      14.33155624      61.92228306        5
Au      77.38930167      14.33155624      61.92228306        5
Au      80.30965267      14.33155624      61.92228306        5
Au      83.23000368      14.33155624      61.92228306        5
Au      86.15035469      14.33155624      61.92228306        5
Au      89.07070569      14.33155624      61.92228306        5
Au      91.99105670      14.33155624      61.92228306        5
Au      94.91140770      14.33155624      61.92228306        5
Au      97.83175871      14.33155624      61.92228306        5
Au     100.75210972      14.33155624      61.92228306        5
Au       0.00000000      16.86065440      61.92228306        5
Au       2.92035101      16.86065440      61.92228306        5
Au       5.84070201      16.86065440      61.92228306        5
Au       8.76105302      16.86065440      61.92228306        5
Au      11.68140403      16.86065440      61.92228306        5
Au      14.60175503      16.86065440      61.92228306        5
Au      17.52210604      16.86065440      61.92228306        5
Au      20.44245704      16.86065440      61.92228306        5
Au      23.36280805      16.86065440      61.92228306        5
Au      26.28315906      16.86065440      61.92228306        5
Au      29.20351006      16.86065440      61.92228306        5
Au      32.12386107      16.86065440      61.92228306        5
Au      35.04421208      16.86065440      61.92228306        5
Au      37.96456308      16.86065440      61.92228306        5
Au      40.88491409      16.86065440      61.92228306        5
Au      43.80526509      16.86065440      61.92228306        5
Au      46.72561610      16.86065440      61.92228306        5
Au      49.64596711      16.86065440      61.92228306        5
Au      52.56631811      16.86065440      61.92228306        5
Au      55.48666912      16.86065440      61.92228306        5
Au      58.40702013      16.86065440      61.92228306        5
Au      61.32737113      16.86065440      61.92228306        5
Au      64.24772214      16.86065440      61.92228306        5
Au      67.16807314      16.86065440      61.92228306        5
Au      70.08842415      16.86065440      61.92228306        5
Au      73.00877516      16.86065440      61.92228306        5
Au      75.92912616      16.86065440      61.92228306        5
Au      78.84947717      16.86065440      61.92228306        5
Au      81.76982818      16.86065440      61.92228306        5
Au      84.69017918      16.86065440      61.92228306        5
Au      87.61053019      16.86065440      61.92228306        5
Au      90.53088120      16.86065440      61.92228306        5
Au      93.45123220      16.86065440      61.92228306        5
Au      96.37158321      16.86065440      61.92228306        5
Au      99.29193421      16.86065440      61.92228306        5
Au       1.46017550      19.38975256      61.92228306        5
Au       4.38052651      19.38975256      61.92228306        5
Au       7.30087752      19.38975256      61.92228306        5
Au      10.22122852      19.38975256      61.92228306        5
Au      13.14157953      19.38975256      61.92228306        5
Au      16.06193053      19.38975256      61.92228306        5
Au      18.98228154      19.38975256      61.92228306        5
Au      21.90263255      19.38975256      61.92228306        5
Au      24.82298355      19.38975256      61.92228306        5
Au      27.74333456      19.38975256      61.92228306        5
Au      30.66368557      19.38975256      61.92228306        5
Au      33.58403657      19.38975256      61.92228306        5
Au      36.50438758      19.38975256      61.92228306        5
Au      39.42473859      19.38975256      61.92228306        5
Au      42.34508959      19.38975256      61.92228306        5
Au      45.26544060      19.38975256      61.92228306        5
Au      48.18579160      19.38975256      61.92228306        5
Au      51.10614261      19.38975256      61.92228306        5
Au      54.02649362      19.38975256      61.92228306        5
Au      56.94684462      19.38975256      61.92228306        5
Au      59.86719563      19.38975256      61.92228306        5
Au      62.78754664      19.38975256      61.92228306        5
Au      65.70789764      19.38975256      61.92228306        5
Au      68.62824865      19.38975256      61.92228306        5
Au      71.54859965      19.38975256      61.92228306        5
Au      74.46895066      19.38975256      61.92228306        5
Au      77.38930167      19.38975256      61.92228306        5
Au      80.30965267      19.38975256      61.92228306        5
Au      83.23000368      19.38975256      61.92228306        5
Au      86.15035469      19.38975256      61.92228306        5
Au      89.07070569      19.38975256      61.92228306        5
Au      91.99105670      19.38975256      61.92228306        5
Au      94.91140770      19.38975256      61.92228306        5
Au      97.83175871      19.38975256      61.92228306        5
Au     100.75210972      19.38975256      61.92228306        5
Au       0.00000000      21.91885072      61.92228306        5
Au       2.92035101      21.91885072      61.92228306        5
Au       5.84070201      21.91885072      61.92228306        5
Au       8.76105302      21.91885072      61.92228306        5
Au      11.68140403      21.91885072      61.92228306        5
Au      14.60175503      21.91885072      61.92228306        5
Au      17.52210604      21.91885072      61.92228306        5
Au      20.44245704      21.91885072      61.92228306        5
Au      23.36280805      21.91885072      61.92228306        5
Au      26.28315906      21.91885072      61.92228306        5
Au      29.20351006      21.91885072      61.92228306        5
Au      32.12386107      21.91885072      61.92228306        5
Au      35.04421208      21.91885072      61.92228306        5
Au      37.96456308      21.91885072      61.92228306        5
Au      40.88491409      21.91885072      61.92228306        5
Au      43.80526509      21.91885072      61.92228306        5
Au      46.72561610      21.91885072      61.92228306        5
Au      49.64596711      21.91885072      61.92228306        5
Au      52.56631811      21.91885072      61.92228306        5
Au      55.48666912      21.91885072      61.92228306        5
Au      58.40702013      21.91885072      61.92228306        5
Au      61.32737113      21.91885072      61.92228306        5
Au      64.24772214      21.91885072      61.92228306        5
Au      67.16807314      21.91885072      61.92228306        5
Au      70.08842415      21.91885072      61.92228306        5
Au      73.00877516      21.91885072      61.92228306        5
Au      75.92912616      21.91885072      61.92228306        5
Au      78.84947717      21.91885072      61.92228306        5
Au      81.76982818      21.91885072      61.92228306        5
Au      84.69017918      21.91885072      61.92228306        5
Au      87.61053019      21.91885072      61.92228306        5
Au      90.53088120      21.91885072      61.92228306        5
Au      93.45123220      21.91885072      61.92228306        5
Au      96.37158321      21.91885072      61.92228306        5
Au      99.29193421      21.91885072      61.92228306        5
Au       1.46017550      24.44794887      61.92228306        5
Au       4.38052651      24.44794887      61.92228306        5
Au       7.30087752      24.44794887      61.92228306        5
Au      10.22122852      24.44794887      61.92228306        5
Au      13.14157953      24.44794887      61.92228306        5
Au      16.06193053      24.44794887      61.92228306        5
Au      18.98228154      24.44794887      61.92228306        5
Au      21.90263255      24.44794887      61.92228306        5
Au      24.82298355      24.44794887      61.92228306        5
Au      27.74333456      24.44794887      61.92228306        5
Au      30.66368557      24.44794887      61.92228306        5
Au      33.58403657      24.44794887      61.92228306        5
Au      36.50438758      24.44794887      61.92228306        5
Au      39.42473859      24.44794887      61.92228306        5
Au      42.34508959      24.44794887      61.92228306        5
Au      45.26544060      24.44794887      61.92228306        5
Au      48.18579160      24.44794887      61.92228306        5
Au      51.10614261      24.44794887      61.92228306        5
Au      54.02649362      24.44794887      61.92228306        5
Au      56.94684462      24.44794887      61.92228306        5
Au      59.86719563      24.44794887      61.92228306        5
Au      62.78754664      24.44794887      61.92228306        5
Au      65.70789764      24.44794887      61.92228306        5
Au      68.62824865      24.44794887      61.92228306        5
Au      71.54859965      24.44794887      61.92228306        5
Au      74.46895066      24.44794887      61.92228306        5
Au      77.38930167      24.44794887      61.92228306        5
Au      80.30965267      24.44794887      61.92228306        5
Au      83.23000368      24.44794887      61.92228306        5
Au      86.15035469      24.44794887      61.92228306        5
Au      89.07070569      24.44794887      61.92228306        5
Au      91.99105670      24.44794887      61.92228306        5
Au      94.91140770      24.44794887      61.92228306        5
Au      97.83175871      24.44794887      61.92228306        5
Au     100.75210972      24.44794887      61.92228306        5
Au       0.00000000      26.97704703      61.92228306        5
Au       2.92035101      26.97704703      61.92228306        5
Au       5.84070201      26.97704703      61.92228306        5
Au       8.76105302      26.97704703      61.92228306        5
Au      11.68140403      26.97704703      61.92228306        5
Au      14.60175503      26.97704703      61.92228306        5
Au      17.52210604      26.97704703      61.92228306        5
Au      20.44245704      26.97704703      61.92228306        5
Au      23.36280805      26.97704703      61.92228306        5
Au      26.28315906      26.97704703      61.92228306        5
Au      29.20351006      26.97704703      61.92228306        5
Au      32.12386107      26.97704703      61.92228306        5
Au      35.04421208      26.97704703      61.92228306        5
Au      37.96456308      26.97704703      61.92228306        5
Au      40.88491409      26.97704703      61.92228306        5
Au      43.80526509      26.97704703      61.92228306        5
Au      46.72561610      26.97704703      61.92228306        5
Au      49.64596711      26.97704703      61.92228306        5
Au      52.56631811      26.97704703      61.92228306        5
Au      55.48666912      26.97704703      61.92228306        5
Au      58.40702013      26.97704703      61.92228306        5
Au      61.32737113      26.97704703      61.92228306        5
Au      64.24772214      26.97704703      61.92228306        5
Au      67.16807314      26.97704703      61.92228306        5
Au      70.08842415      26.97704703      61.92228306        5
Au      73.00877516      26.97704703      61.92228306        5
Au      75.92912616      26.97704703      61.92228306        5
Au      78.84947717      26.97704703      61.92228306        5
Au      81.76982818      26.97704703      61.92228306        5
Au      84.69017918      26.97704703      61.92228306        5
Au      87.61053019      26.97704703      61.92228306        5
Au      90.53088120      26.97704703      61.92228306        5
Au      93.45123220      26.97704703      61.92228306        5
Au      96.37158321      26.97704703      61.92228306        5
Au      99.29193421      26.97704703      61.92228306        5
Au       1.46017550      29.50614519      61.92228306        5
Au       4.38052651      29.50614519      61.92228306        5
Au       7.30087752      29.50614519      61.92228306        5
Au      10.22122852      29.50614519      61.92228306        5
Au      13.14157953      29.50614519      61.92228306        5
Au      16.06193053      29.50614519      61.92228306        5
Au      18.98228154      29.50614519      61.92228306        5
Au      21.90263255      29.50614519      61.92228306        5
Au      24.82298355      29.50614519      61.92228306        5
Au      27.74333456      29.50614519      61.92228306        5
Au      30.66368557      29.50614519      61.92228306        5
Au      33.58403657      29.50614519      61.92228306        5
Au      36.50438758      29.50614519      61.92228306        5
Au      39.42473859      29.50614519      61.92228306        5
Au      42.34508959      29.50614519      61.92228306        5
Au      45.26544060      29.50614519      61.92228306        5
Au      48.18579160      29.50614519      61.92228306        5
Au      51.10614261      29.50614519      61.92228306        5
Au      54.02649362      29.50614519      61.92228306        5
Au      56.94684462      29.50614519      61.92228306        5
Au      59.86719563      29.50614519      61.92228306        5
Au      62.78754664      29.50614519      61.92228306        5
Au      65.70789764      29.50614519      61.92228306        5
Au      68.62824865      29.50614519      61.92228306        5
Au      71.54859965      29.50614519      61.92228306        5
Au      74.46895066      29.50614519      61.92228306        5
Au      77.38930167      29.50614519      61.92228306        5
Au      80.30965267      29.50614519      61.92228306        5
Au      83.23000368      29.50614519      61.92228306        5
Au      86.15035469      29.50614519      61.92228306        5
Au      89.07070569      29.50614519      61.92228306        5
Au      91.99105670      29.50614519      61.92228306        5
Au      94.91140770      29.50614519      61.92228306        5
Au      97.83175871      29.50614519      61.92228306        5
Au     100.75210972      29.50614519      61.92228306        5
Au       0.00000000      32.03524335      61.92228306        5
Au       2.92035101      32.03524335      61.92228306        5
Au       5.84070201      32.03524335      61.92228306        5
Au       8.76105302      32.03524335      61.92228306        5
Au      11.68140403      32.03524335      61.92228306        5
Au      14.60175503      32.03524335      61.92228306        5
Au      17.52210604      32.03524335      61.92228306        5
Au      20.44245704      32.03524335      61.92228306        5
Au      23.36280805      32.03524335      61.92228306        5
Au      26.28315906      32.03524335      61.92228306        5
Au      29.20351006      32.03524335      61.92228306        5
Au      32.12386107      32.03524335      61.92228306        5
Au      35.04421208      32.03524335      61.92228306        5
Au      37.96456308      32.03524335      61.92228306        5
Au      40.88491409      32.03524335      61.92228306        5
Au      43.80526509      32.03524335      61.92228306        5
Au      46.72561610      32.03524335      61.92228306        5
Au      49.64596711      32.03524335      61.92228306        5
Au      52.56631811      32.03524335      61.92228306        5
Au      55.48666912      32.03524335      61.92228306        5
Au      58.40702013      32.03524335      61.92228306        5
Au      61.32737113      32.03524335      61.92228306        5
Au      64.24772214      32.03524335      61.92228306        5
Au      67.16807314      32.03524335      61.92228306        5
Au      70.08842415      32.03524335      61.92228306        5
Au      73.00877516      32.03524335      61.92228306        5
Au      75.92912616      32.03524335      61.92228306        5
Au      78.84947717      32.03524335      61.92228306        5
Au      81.76982818      32.03524335      61.92228306        5
Au      84.69017918      32.03524335      61.92228306        5
Au      87.61053019      32.03524335      61.92228306        5
Au      90.53088120      32.03524335      61.92228306        5
Au      93.45123220      32.03524335      61.92228306        5
Au      96.37158321      32.03524335      61.92228306        5
Au      99.29193421      32.03524335      61.92228306        5
Au       1.46017550      34.56434151      61.92228306        5
Au       4.38052651      34.56434151      61.92228306        5
Au       7.30087752      34.56434151      61.92228306        5
Au      10.22122852      34.56434151      61.92228306        5
Au      13.14157953      34.56434151      61.92228306        5
Au      16.06193053      34.56434151      61.92228306        5
Au      18.98228154      34.56434151      61.92228306        5
Au      21.90263255      34.56434151      61.92228306        5
Au      24.82298355      34.56434151      61.92228306        5
Au      27.74333456      34.56434151      61.92228306        5
Au      30.66368557      34.56434151      61.92228306        5
Au      33.58403657      34.56434151      61.92228306        5
Au      36.50438758      34.56434151      61.92228306        5
Au      39.42473859      34.56434151      61.92228306        5
Au      42.34508959      34.56434151      61.92228306        5
Au      45.26544060      34.56434151      61.92228306        5
Au      48.18579160      34.56434151      61.92228306        5
Au      51.10614261      34.56434151      61.92228306        5
Au      54.02649362      34.56434151      61.92228306        5
Au      56.94684462      34.56434151      61.92228306        5
Au      59.86719563      34.56434151      61.92228306        5
Au      62.78754664      34.56434151      61.92228306        5
Au      65.70789764      34.56434151      61.92228306        5
Au      68.62824865      34.56434151      61.92228306        5
Au      71.54859965      34.56434151      61.92228306        5
Au      74.46895066      34.56434151      61.92228306        5
Au      77.38930167      34.56434151      61.92228306        5
Au      80.30965267      34.56434151      61.92228306        5
Au      83.23000368      34.56434151      61.92228306        5
Au      86.15035469      34.56434151      61.92228306        5
Au      89.07070569      34.56434151      61.92228306        5
Au      91.99105670      34.56434151      61.92228306        5
Au      94.91140770      34.56434151      61.92228306        5
Au      97.83175871      34.56434151      61.92228306        5
Au     100.75210972      34.56434151      61.92228306        5
Au       0.00000000      37.09343967      61.92228306        5
Au       2.92035101      37.09343967      61.92228306        5
Au       5.84070201      37.09343967      61.92228306        5
Au       8.76105302      37.09343967      61.92228306        5
Au      11.68140403      37.09343967      61.92228306        5
Au      14.60175503      37.09343967      61.92228306        5
Au      17.52210604      37.09343967      61.92228306        5
Au      20.44245704      37.09343967      61.92228306        5
Au      23.36280805      37.09343967      61.92228306        5
Au      26.28315906      37.09343967      61.92228306        5
Au      29.20351006      37.09343967      61.92228306        5
Au      32.12386107      37.09343967      61.92228306        5
Au      35.04421208      37.09343967      61.92228306        5
Au      37.96456308      37.09343967      61.92228306        5
Au      40.88491409      37.09343967      61.92228306        5
Au      43.80526509      37.09343967      61.92228306        5
Au      46.72561610      37.09343967      61.92228306        5
Au      49.64596711      37.09343967      61.92228306        5
Au      52.56631811      37.09343967      61.92228306        5
Au      55.48666912      37.09343967      61.92228306        5
Au      58.40702013      37.09343967      61.92228306        5
Au      61.32737113      37.09343967      61.92228306        5
Au      64.24772214      37.09343967      61.92228306        5
Au      67.16807314      37.09343967      61.92228306        5
Au      70.08842415      37.09343967      61.92228306        5
Au      73.00877516      37.09343967      61.92228306        5
Au      75.92912616      37.09343967      61.92228306        5
Au      78.84947717      37.09343967      61.92228306        5
Au      81.76982818      37.09343967      61.92228306        5
Au      84.69017918      37.09343967      61.92228306        5
Au      87.61053019      37.09343967      61.92228306        5
Au      90.53088120      37.09343967      61.92228306        5
Au      93.45123220      37.09343967      61.92228306        5
Au      96.37158321      37.09343967      61.92228306        5
Au      99.29193421      37.09343967      61.92228306        5
Au       1.46017550      39.62253783      61.92228306        5
Au       4.38052651      39.62253783      61.92228306        5
Au       7.30087752      39.62253783      61.92228306        5
Au      10.22122852      39.62253783      61.92228306        5
Au      13.14157953      39.62253783      61.92228306        5
Au      16.06193053      39.62253783      61.92228306        5
Au      18.98228154      39.62253783      61.92228306        5
Au      21.90263255      39.62253783      61.92228306        5
Au      24.82298355      39.62253783      61.92228306        5
Au      27.74333456      39.62253783      61.92228306        5
Au      30.66368557      39.62253783      61.92228306        5
Au      33.58403657      39.62253783      61.92228306        5
Au      36.50438758      39.62253783      61.92228306        5
Au      39.42473859      39.62253783      61.92228306        5
Au      42.34508959      39.62253783      61.92228306        5
Au      45.26544060      39.62253783      61.92228306        5
Au      48.18579160      39.62253783      61.92228306        5
Au      51.10614261      39.62253783      61.92228306        5
Au      54.02649362      39.62253783      61.92228306        5
Au      56.94684462      39.62253783      61.92228306        5
Au      59.86719563      39.62253783      61.92228306        5
Au      62.78754664      39.62253783      61.92228306        5
Au      65.70789764      39.62253783      61.92228306        5
Au      68.62824865      39.62253783      61.92228306        5
Au      71.54859965      39.62253783      61.92228306        5
Au      74.46895066      39.62253783      61.92228306        5
Au      77.38930167      39.62253783      61.92228306        5
Au      80.30965267      39.62253783      61.92228306        5
Au      83.23000368      39.62253783      61.92228306        5
Au      86.15035469      39.62253783      61.92228306        5
Au      89.07070569      39.62253783      61.92228306        5
Au      91.99105670      39.62253783      61.92228306        5
Au      94.91140770      39.62253783      61.92228306        5
Au      97.83175871      39.62253783      61.92228306        5
Au     100.75210972      39.62253783      61.92228306        5
Au       0.00000000      42.15163599      61.92228306        5
Au       2.92035101      42.15163599      61.92228306        5
Au       5.84070201      42.15163599      61.92228306        5
Au       8.76105302      42.15163599      61.92228306        5
Au      11.68140403      42.15163599      61.92228306        5
Au      14.60175503      42.15163599      61.92228306        5
Au      17.52210604      42.15163599      61.92228306        5
Au      20.44245704      42.15163599      61.92228306        5
Au      23.36280805      42.15163599      61.92228306        5
Au      26.28315906      42.15163599      61.92228306        5
Au      29.20351006      42.15163599      61.92228306        5
Au      32.12386107      42.15163599      61.92228306        5
Au      35.04421208      42.15163599      61.92228306        5
Au      37.96456308      42.15163599      61.92228306        5
Au      40.88491409      42.15163599      61.92228306        5
Au      43.80526509      42.15163599      61.92228306        5
Au      46.72561610      42.15163599      61.92228306        5
Au      49.64596711      42.15163599      61.92228306        5
Au      52.56631811      42.15163599      61.92228306        5
Au      55.48666912      42.15163599      61.92228306        5
Au      58.40702013      42.15163599      61.92228306        5
Au      61.32737113      42.15163599      61.92228306        5
Au      64.24772214      42.15163599      61.92228306        5
Au      67.16807314      42.15163599      61.92228306        5
Au      70.08842415      42.15163599      61.92228306        5
Au      73.00877516      42.15163599      61.92228306        5
Au      75.92912616      42.15163599      61.92228306        5
Au      78.84947717      42.15163599      61.92228306        5
Au      81.76982818      42.15163599      61.92228306        5
Au      84.69017918      42.15163599      61.92228306        5
Au      87.61053019      42.15163599      61.92228306        5
Au      90.53088120      42.15163599      61.92228306        5
Au      93.45123220      42.15163599      61.92228306        5
Au      96.37158321      42.15163599      61.92228306        5
Au      99.29193421      42.15163599      61.92228306        5
Au       1.46017550      44.68073415      61.92228306        5
Au       4.38052651      44.68073415      61.92228306        5
Au       7.30087752      44.68073415      61.92228306        5
Au      10.22122852      44.68073415      61.92228306        5
Au      13.14157953      44.68073415      61.92228306        5
Au      16.06193053      44.68073415      61.92228306        5
Au      18.98228154      44.68073415      61.92228306        5
Au      21.90263255      44.68073415      61.92228306        5
Au      24.82298355      44.68073415      61.92228306        5
Au      27.74333456      44.68073415      61.92228306        5
Au      30.66368557      44.68073415      61.92228306        5
Au      33.58403657      44.68073415      61.92228306        5
Au      36.50438758      44.68073415      61.92228306        5
Au      39.42473859      44.68073415      61.92228306        5
Au      42.34508959      44.68073415      61.92228306        5
Au      45.26544060      44.68073415      61.92228306        5
Au      48.18579160      44.68073415      61.92228306        5
Au      51.10614261      44.68073415      61.92228306        5
Au      54.02649362      44.68073415      61.92228306        5
Au      56.94684462      44.68073415      61.92228306        5
Au      59.86719563      44.68073415      61.92228306        5
Au      62.78754664      44.68073415      61.92228306        5
Au      65.70789764      44.68073415      61.92228306        5
Au      68.62824865      44.68073415      61.92228306        5
Au      71.54859965      44.68073415      61.92228306        5
Au      74.46895066      44.68073415      61.92228306        5
Au      77.38930167      44.68073415      61.92228306        5
Au      80.30965267      44.68073415      61.92228306        5
Au      83.23000368      44.68073415      61.92228306        5
Au      86.15035469      44.68073415      61.92228306        5
Au      89.07070569      44.68073415      61.92228306        5
Au      91.99105670      44.68073415      61.92228306        5
Au      94.91140770      44.68073415      61.92228306        5
Au      97.83175871      44.68073415      61.92228306        5
Au     100.75210972      44.68073415      61.92228306        5
Au       0.00000000      47.20983231      61.92228306        5
Au       2.92035101      47.20983231      61.92228306        5
Au       5.84070201      47.20983231      61.92228306        5
Au       8.76105302      47.20983231      61.92228306        5
Au      11.68140403      47.20983231      61.92228306        5
Au      14.60175503      47.20983231      61.92228306        5
Au      17.52210604      47.20983231      61.92228306        5
Au      20.44245704      47.20983231      61.92228306        5
Au      23.36280805      47.20983231      61.92228306        5
Au      26.28315906      47.20983231      61.92228306        5
Au      29.20351006      47.20983231      61.92228306        5
Au      32.12386107      47.20983231      61.92228306        5
Au      35.04421208      47.20983231      61.92228306        5
Au      37.96456308      47.20983231      61.92228306        5
Au      40.88491409      47.20983231      61.92228306        5
Au      43.80526509      47.20983231      61.92228306        5
Au      46.72561610      47.20983231      61.92228306        5
Au      49.64596711      47.20983231      61.92228306        5
Au      52.56631811      47.20983231      61.92228306        5
Au      55.48666912      47.20983231      61.92228306        5
Au      58.40702013      47.20983231      61.92228306        5
Au      61.32737113      47.20983231      61.92228306        5
Au      64.24772214      47.20983231      61.92228306        5
Au      67.16807314      47.20983231      61.92228306        5
Au      70.08842415      47.20983231      61.92228306        5
Au      73.00877516      47.20983231      61.92228306        5
Au      75.92912616      47.20983231      61.92228306        5
Au      78.84947717      47.20983231      61.92228306        5
Au      81.76982818      47.20983231      61.92228306        5
Au      84.69017918      47.20983231      61.92228306        5
Au      87.61053019      47.20983231      61.92228306        5
Au      90.53088120      47.20983231      61.92228306        5
Au      93.45123220      47.20983231      61.92228306        5
Au      96.37158321      47.20983231      61.92228306        5
Au      99.29193421      47.20983231      61.92228306        5
Au       1.46017550      49.73893047      61.92228306        5
Au       4.38052651      49.73893047      61.92228306        5
Au       7.30087752      49.73893047      61.92228306        5
Au      10.22122852      49.73893047      61.92228306        5
Au      13.14157953      49.73893047      61.92228306        5
Au      16.06193053      49.73893047      61.92228306        5
Au      18.98228154      49.73893047      61.92228306        5
Au      21.90263255      49.73893047      61.92228306        5
Au      24.82298355      49.73893047      61.92228306        5
Au      27.74333456      49.73893047      61.92228306        5
Au      30.66368557      49.73893047      61.92228306        5
Au      33.58403657      49.73893047      61.92228306        5
Au      36.50438758      49.73893047      61.92228306        5
Au      39.42473859      49.73893047      61.92228306        5
Au      42.34508959      49.73893047      61.92228306        5
Au      45.26544060      49.73893047      61.92228306        5
Au      48.18579160      49.73893047      61.92228306        5
Au      51.10614261      49.73893047      61.92228306        5
Au      54.02649362      49.73893047      61.92228306        5
Au      56.94684462      49.73893047      61.92228306        5
Au      59.86719563      49.73893047      61.92228306        5
Au      62.78754664      49.73893047      61.92228306        5
Au      65.70789764      49.73893047      61.92228306        5
Au      68.62824865      49.73893047      61.92228306        5
Au      71.54859965      49.73893047      61.92228306        5
Au      74.46895066      49.73893047      61.92228306        5
Au      77.38930167      49.73893047      61.92228306        5
Au      80.30965267      49.73893047      61.92228306        5
Au      83.23000368      49.73893047      61.92228306        5
Au      86.15035469      49.73893047      61.92228306        5
Au      89.07070569      49.73893047      61.92228306        5
Au      91.99105670      49.73893047      61.92228306        5
Au      94.91140770      49.73893047      61.92228306        5
Au      97.83175871      49.73893047      61.92228306        5
Au     100.75210972      49.73893047      61.92228306        5
Au       0.00000000       0.00000000      64.30673967        4
Au       2.92035101       0.00000000      64.30673967        4
Au       5.84070201       0.00000000      64.30673967        4
Au       8.76105302       0.00000000      64.30673967        4
Au      11.68140403       0.00000000      64.30673967        4
Au      14.60175503       0.00000000      64.30673967        4
Au      17.52210604       0.00000000      64.30673967        4
Au      20.44245704       0.00000000      64.30673967        4
Au      23.36280805       0.00000000      64.30673967        4
Au      26.28315906       0.00000000      64.30673967        4
Au      29.20351006       0.00000000      64.30673967        4
Au      32.12386107       0.00000000      64.30673967        4
Au      35.04421208       0.00000000      64.30673967        4
Au      37.96456308       0.00000000      64.30673967        4
Au      40.88491409       0.00000000      64.30673967        4
Au      43.80526509       0.00000000      64.30673967        4
Au      46.72561610       0.00000000      64.30673967        4
Au      49.64596711       0.00000000      64.30673967        4
Au      52.56631811       0.00000000      64.30673967        4
Au      55.48666912       0.00000000      64.30673967        4
Au      58.40702013       0.00000000      64.30673967        4
Au      61.32737113       0.00000000      64.30673967        4
Au      64.24772214       0.00000000      64.30673967        4
Au      67.16807314       0.00000000      64.30673967        4
Au      70.08842415       0.00000000      64.30673967        4
Au      73.00877516       0.00000000      64.30673967        4
Au      75.92912616       0.00000000      64.30673967        4
Au      78.84947717       0.00000000      64.30673967        4
Au      81.76982818       0.00000000      64.30673967        4
Au      84.69017918       0.00000000      64.30673967        4
Au      87.61053019       0.00000000      64.30673967        4
Au      90.53088120       0.00000000      64.30673967        4
Au      93.45123220       0.00000000      64.30673967        4
Au      96.37158321       0.00000000      64.30673967        4
Au      99.29193421       0.00000000      64.30673967        4
Au       1.46017550       2.52909816      64.30673967        4
Au       4.38052651       2.52909816      64.30673967        4
Au       7.30087752       2.52909816      64.30673967        4
Au      10.22122852       2.52909816      64.30673967        4
Au      13.14157953       2.52909816      64.30673967        4
Au      16.06193053       2.52909816      64.30673967        4
Au      18.98228154       2.52909816      64.30673967        4
Au      21.90263255       2.52909816      64.30673967        4
Au      24.82298355       2.52909816      64.30673967        4
Au      27.74333456       2.52909816      64.30673967        4
Au      30.66368557       2.52909816      64.30673967        4
Au      33.58403657       2.52909816      64.30673967        4
Au      36.50438758       2.52909816      64.30673967        4
Au      39.42473859       2.52909816      64.30673967        4
Au      42.34508959       2.52909816      64.30673967        4
Au      45.26544060       2.52909816      64.30673967        4
Au      48.18579160       2.52909816      64.30673967        4
Au      51.10614261       2.52909816      64.30673967        4
Au      54.02649362       2.52909816      64.30673967        4
Au      56.94684462       2.52909816      64.30673967        4
Au      59.86719563       2.52909816      64.30673967        4
Au      62.78754664       2.52909816      64.30673967        4
Au      65.70789764       2.52909816      64.30673967        4
Au      68.62824865       2.52909816      64.30673967        4
Au      71.54859965       2.52909816      64.30673967        4
Au      74.46895066       2.52909816      64.30673967        4
Au      77.38930167       2.52909816      64.30673967        4
Au      80.30965267       2.52909816      64.30673967        4
Au      83.23000368       2.52909816      64.30673967        4
Au      86.15035469       2.52909816      64.30673967        4
Au      89.07070569       2.52909816      64.30673967        4
Au      91.99105670       2.52909816      64.30673967        4
Au      94.91140770       2.52909816      64.30673967        4
Au      97.83175871       2.52909816      64.30673967        4
Au     100.75210972       2.52909816      64.30673967        4
Au       0.00000000       5.05819632      64.30673967        4
Au       2.92035101       5.05819632      64.30673967        4
Au       5.84070201       5.05819632      64.30673967        4
Au       8.76105302       5.05819632      64.30673967        4
Au      11.68140403       5.05819632      64.30673967        4
Au      14.60175503       5.05819632      64.30673967        4
Au      17.52210604       5.05819632      64.30673967        4
Au      20.44245704       5.05819632      64.30673967        4
Au      23.36280805       5.05819632      64.30673967        4
Au      26.28315906       5.05819632      64.30673967        4
Au      29.20351006       5.05819632      64.30673967        4
Au      32.12386107       5.05819632      64.30673967        4
Au      35.04421208       5.05819632      64.30673967        4
Au      37.96456308       5.05819632      64.30673967        4
Au      40.88491409       5.05819632      64.30673967        4
Au      43.80526509       5.05819632      64.30673967        4
Au      46.72561610       5.05819632      64.30673967        4
Au      49.64596711       5.05819632      64.30673967        4
Au      52.56631811       5.05819632      64.30673967        4
Au      55.48666912       5.05819632      64.30673967        4
Au      58.40702013       5.05819632      64.30673967        4
Au      61.32737113       5.05819632      64.30673967        4
Au      64.24772214       5.05819632      64.30673967        4
Au      67.16807314       5.05819632      64.30673967        4
Au      70.08842415       5.05819632      64.30673967        4
Au      73.00877516       5.05819632      64.30673967        4
Au      75.92912616       5.05819632      64.30673967        4
Au      78.84947717       5.05819632      64.30673967        4
Au      81.76982818       5.05819632      64.30673967        4
Au      84.69017918       5.05819632      64.30673967        4
Au      87.61053019       5.05819632      64.30673967        4
Au      90.53088120       5.05819632      64.30673967        4
Au      93.45123220       5.05819632      64.30673967        4
Au      96.37158321       5.05819632      64.30673967        4
Au      99.29193421       5.05819632      64.30673967        4
Au       1.46017550       7.58729448      64.30673967        4
Au       4.38052651       7.58729448      64.30673967        4
Au       7.30087752       7.58729448      64.30673967        4
Au      10.22122852       7.58729448      64.30673967        4
Au      13.14157953       7.58729448      64.30673967        4
Au      16.06193053       7.58729448      64.30673967        4
Au      18.98228154       7.58729448      64.30673967        4
Au      21.90263255       7.58729448      64.30673967        4
Au      24.82298355       7.58729448      64.30673967        4
Au      27.74333456       7.58729448      64.30673967        4
Au      30.66368557       7.58729448      64.30673967        4
Au      33.58403657       7.58729448      64.30673967        4
Au      36.50438758       7.58729448      64.30673967        4
Au      39.42473859       7.58729448      64.30673967        4
Au      42.34508959       7.58729448      64.30673967        4
Au      45.26544060       7.58729448      64.30673967        4
Au      48.18579160       7.58729448      64.30673967        4
Au      51.10614261       7.58729448      64.30673967        4
Au      54.02649362       7.58729448      64.30673967        4
Au      56.94684462       7.58729448      64.30673967        4
Au      59.86719563       7.58729448      64.30673967        4
Au      62.78754664       7.58729448      64.30673967        4
Au      65.70789764       7.58729448      64.30673967        4
Au      68.62824865       7.58729448      64.30673967        4
Au      71.54859965       7.58729448      64.30673967        4
Au      74.46895066       7.58729448      64.30673967        4
Au      77.38930167       7.58729448      64.30673967        4
Au      80.30965267       7.58729448      64.30673967        4
Au      83.23000368       7.58729448      64.30673967        4
Au      86.15035469       7.58729448      64.30673967        4
Au      89.07070569       7.58729448      64.30673967        4
Au      91.99105670       7.58729448      64.30673967        4
Au      94.91140770       7.58729448      64.30673967        4
Au      97.83175871       7.58729448      64.30673967        4
Au     100.75210972       7.58729448      64.30673967        4
Au       0.00000000      10.11639264      64.30673967        4
Au       2.92035101      10.11639264      64.30673967        4
Au       5.84070201      10.11639264      64.30673967        4
Au       8.76105302      10.11639264      64.30673967        4
Au      11.68140403      10.11639264      64.30673967        4
Au      14.60175503      10.11639264      64.30673967        4
Au      17.52210604      10.11639264      64.30673967        4
Au      20.44245704      10.11639264      64.30673967        4
Au      23.36280805      10.11639264      64.30673967        4
Au      26.28315906      10.11639264      64.30673967        4
Au      29.20351006      10.11639264      64.30673967        4
Au      32.12386107      10.11639264      64.30673967        4
Au      35.04421208      10.11639264      64.30673967        4
Au      37.96456308      10.11639264      64.30673967        4
Au      40.88491409      10.11639264      64.30673967        4
Au      43.80526509      10.11639264      64.30673967        4
Au      46.72561610      10.11639264      64.30673967        4
Au      49.64596711      10.11639264      64.30673967        4
Au      52.56631811      10.11639264      64.30673967        4
Au      55.48666912      10.11639264      64.30673967        4
Au      58.40702013      10.11639264      64.30673967        4
Au      61.32737113      10.11639264      64.30673967        4
Au      64.24772214      10.11639264      64.30673967        4
Au      67.16807314      10.11639264      64.30673967        4
Au      70.08842415      10.11639264      64.30673967        4
Au      73.00877516      10.11639264      64.30673967        4
Au      75.92912616      10.11639264      64.30673967        4
Au      78.84947717      10.11639264      64.30673967        4
Au      81.76982818      10.11639264      64.30673967        4
Au      84.69017918      10.11639264      64.30673967        4
Au      87.61053019      10.11639264      64.30673967        4
Au      90.53088120      10.11639264      64.30673967        4
Au      93.45123220      10.11639264      64.30673967        4
Au      96.37158321      10.11639264      64.30673967        4
Au      99.29193421      10.11639264      64.30673967        4
Au       1.46017550      12.64549080      64.30673967        4
Au       4.38052651      12.64549080      64.30673967        4
Au       7.30087752      12.64549080      64.30673967        4
Au      10.22122852      12.64549080      64.30673967        4
Au      13.14157953      12.64549080      64.30673967        4
Au      16.06193053      12.64549080      64.30673967        4
Au      18.98228154      12.64549080      64.30673967        4
Au      21.90263255      12.64549080      64.30673967        4
Au      24.82298355      12.64549080      64.30673967        4
Au      27.74333456      12.64549080      64.30673967        4
Au      30.66368557      12.64549080      64.30673967        4
Au      33.58403657      12.64549080      64.30673967        4
Au      36.50438758      12.64549080      64.30673967        4
Au      39.42473859      12.64549080      64.30673967        4
Au      42.34508959      12.64549080      64.30673967        4
Au      45.26544060      12.64549080      64.30673967        4
Au      48.18579160      12.64549080      64.30673967        4
Au      51.10614261      12.64549080      64.30673967        4
Au      54.02649362      12.64549080      64.30673967        4
Au      56.94684462      12.64549080      64.30673967        4
Au      59.86719563      12.64549080      64.30673967        4
Au      62.78754664      12.64549080      64.30673967        4
Au      65.70789764      12.64549080      64.30673967        4
Au      68.62824865      12.64549080      64.30673967        4
Au      71.54859965      12.64549080      64.30673967        4
Au      74.46895066      12.64549080      64.30673967        4
Au      77.38930167      12.64549080      64.30673967        4
Au      80.30965267      12.64549080      64.30673967        4
Au      83.23000368      12.64549080      64.30673967        4
Au      86.15035469      12.64549080      64.30673967        4
Au      89.07070569      12.64549080      64.30673967        4
Au      91.99105670      12.64549080      64.30673967        4
Au      94.91140770      12.64549080      64.30673967        4
Au      97.83175871      12.64549080      64.30673967        4
Au     100.75210972      12.64549080      64.30673967        4
Au       0.00000000      15.17458896      64.30673967        4
Au       2.92035101      15.17458896      64.30673967        4
Au       5.84070201      15.17458896      64.30673967        4
Au       8.76105302      15.17458896      64.30673967        4
Au      11.68140403      15.17458896      64.30673967        4
Au      14.60175503      15.17458896      64.30673967        4
Au      17.52210604      15.17458896      64.30673967        4
Au      20.44245704      15.17458896      64.30673967        4
Au      23.36280805      15.17458896      64.30673967        4
Au      26.28315906      15.17458896      64.30673967        4
Au      29.20351006      15.17458896      64.30673967        4
Au      32.12386107      15.17458896      64.30673967        4
Au      35.04421208      15.17458896      64.30673967        4
Au      37.96456308      15.17458896      64.30673967        4
Au      40.88491409      15.17458896      64.30673967        4
Au      43.80526509      15.17458896      64.30673967        4
Au      46.72561610      15.17458896      64.30673967        4
Au      49.64596711      15.17458896      64.30673967        4
Au      52.56631811      15.17458896      64.30673967        4
Au      55.48666912      15.17458896      64.30673967        4
Au      58.40702013      15.17458896      64.30673967        4
Au      61.32737113      15.17458896      64.30673967        4
Au      64.24772214      15.17458896      64.30673967        4
Au      67.16807314      15.17458896      64.30673967        4
Au      70.08842415      15.17458896      64.30673967        4
Au      73.00877516      15.17458896      64.30673967        4
Au      75.92912616      15.17458896      64.30673967        4
Au      78.84947717      15.17458896      64.30673967        4
Au      81.76982818      15.17458896      64.30673967        4
Au      84.69017918      15.17458896      64.30673967        4
Au      87.61053019      15.17458896      64.30673967        4
Au      90.53088120      15.17458896      64.30673967        4
Au      93.45123220      15.17458896      64.30673967        4
Au      96.37158321      15.17458896      64.30673967        4
Au      99.29193421      15.17458896      64.30673967        4
Au       1.46017550      17.70368712      64.30673967        4
Au       4.38052651      17.70368712      64.30673967        4
Au       7.30087752      17.70368712      64.30673967        4
Au      10.22122852      17.70368712      64.30673967        4
Au      13.14157953      17.70368712      64.30673967        4
Au      16.06193053      17.70368712      64.30673967        4
Au      18.98228154      17.70368712      64.30673967        4
Au      21.90263255      17.70368712      64.30673967        4
Au      24.82298355      17.70368712      64.30673967        4
Au      27.74333456      17.70368712      64.30673967        4
Au      30.66368557      17.70368712      64.30673967        4
Au      33.58403657      17.70368712      64.30673967        4
Au      36.50438758      17.70368712      64.30673967        4
Au      39.42473859      17.70368712      64.30673967        4
Au      42.34508959      17.70368712      64.30673967        4
Au      45.26544060      17.70368712      64.30673967        4
Au      48.18579160      17.70368712      64.30673967        4
Au      51.10614261      17.70368712      64.30673967        4
Au      54.02649362      17.70368712      64.30673967        4
Au      56.94684462      17.70368712      64.30673967        4
Au      59.86719563      17.70368712      64.30673967        4
Au      62.78754664      17.70368712      64.30673967        4
Au      65.70789764      17.70368712      64.30673967        4
Au      68.62824865      17.70368712      64.30673967        4
Au      71.54859965      17.70368712      64.30673967        4
Au      74.46895066      17.70368712      64.30673967        4
Au      77.38930167      17.70368712      64.30673967        4
Au      80.30965267      17.70368712      64.30673967        4
Au      83.23000368      17.70368712      64.30673967        4
Au      86.15035469      17.70368712      64.30673967        4
Au      89.07070569      17.70368712      64.30673967        4
Au      91.99105670      17.70368712      64.30673967        4
Au      94.91140770      17.70368712      64.30673967        4
Au      97.83175871      17.70368712      64.30673967        4
Au     100.75210972      17.70368712      64.30673967        4
Au       0.00000000      20.23278528      64.30673967        4
Au       2.92035101      20.23278528      64.30673967        4
Au       5.84070201      20.23278528      64.30673967        4
Au       8.76105302      20.23278528      64.30673967        4
Au      11.68140403      20.23278528      64.30673967        4
Au      14.60175503      20.23278528      64.30673967        4
Au      17.52210604      20.23278528      64.30673967        4
Au      20.44245704      20.23278528      64.30673967        4
Au      23.36280805      20.23278528      64.30673967        4
Au      26.28315906      20.23278528      64.30673967        4
Au      29.20351006      20.23278528      64.30673967        4
Au      32.12386107      20.23278528      64.30673967        4
Au      35.04421208      20.23278528      64.30673967        4
Au      37.96456308      20.23278528      64.30673967        4
Au      40.88491409      20.23278528      64.30673967        4
Au      43.80526509      20.23278528      64.30673967        4
Au      46.72561610      20.23278528      64.30673967        4
Au      49.64596711      20.23278528      64.30673967        4
Au      52.56631811      20.23278528      64.30673967        4
Au      55.48666912      20.23278528      64.30673967        4
Au      58.40702013      20.23278528      64.30673967        4
Au      61.32737113      20.23278528      64.30673967        4
Au      64.24772214      20.23278528      64.30673967        4
Au      67.16807314      20.23278528      64.30673967        4
Au      70.08842415      20.23278528      64.30673967        4
Au      73.00877516      20.23278528      64.30673967        4
Au      75.92912616      20.23278528      64.30673967        4
Au      78.84947717      20.23278528      64.30673967        4
Au      81.76982818      20.23278528      64.30673967        4
Au      84.69017918      20.23278528      64.30673967        4
Au      87.61053019      20.23278528      64.30673967        4
Au      90.53088120      20.23278528      64.30673967        4
Au      93.45123220      20.23278528      64.30673967        4
Au      96.37158321      20.23278528      64.30673967        4
Au      99.29193421      20.23278528      64.30673967        4
Au       1.46017550      22.76188343      64.30673967        4
Au       4.38052651      22.76188343      64.30673967        4
Au       7.30087752      22.76188343      64.30673967        4
Au      10.22122852      22.76188343      64.30673967        4
Au      13.14157953      22.76188343      64.30673967        4
Au      16.06193053      22.76188343      64.30673967        4
Au      18.98228154      22.76188343      64.30673967        4
Au      21.90263255      22.76188343      64.30673967        4
Au      24.82298355      22.76188343      64.30673967        4
Au      27.74333456      22.76188343      64.30673967        4
Au      30.66368557      22.76188343      64.30673967        4
Au      33.58403657      22.76188343      64.30673967        4
Au      36.50438758      22.76188343      64.30673967        4
Au      39.42473859      22.76188343      64.30673967        4
Au      42.34508959      22.76188343      64.30673967        4
Au      45.26544060      22.76188343      64.30673967        4
Au      48.18579160      22.76188343      64.30673967        4
Au      51.10614261      22.76188343      64.30673967        4
Au      54.02649362      22.76188343      64.30673967        4
Au      56.94684462      22.76188343      64.30673967        4
Au      59.86719563      22.76188343      64.30673967        4
Au      62.78754664      22.76188343      64.30673967        4
Au      65.70789764      22.76188343      64.30673967        4
Au      68.62824865      22.76188343      64.30673967        4
Au      71.54859965      22.76188343      64.30673967        4
Au      74.46895066      22.76188343      64.30673967        4
Au      77.38930167      22.76188343      64.30673967        4
Au      80.30965267      22.76188343      64.30673967        4
Au      83.23000368      22.76188343      64.30673967        4
Au      86.15035469      22.76188343      64.30673967        4
Au      89.07070569      22.76188343      64.30673967        4
Au      91.99105670      22.76188343      64.30673967        4
Au      94.91140770      22.76188343      64.30673967        4
Au      97.83175871      22.76188343      64.30673967        4
Au     100.75210972      22.76188343      64.30673967        4
Au       0.00000000      25.29098159      64.30673967        4
Au       2.92035101      25.29098159      64.30673967        4
Au       5.84070201      25.29098159      64.30673967        4
Au       8.76105302      25.29098159      64.30673967        4
Au      11.68140403      25.29098159      64.30673967        4
Au      14.60175503      25.29098159      64.30673967        4
Au      17.52210604      25.29098159      64.30673967        4
Au      20.44245704      25.29098159      64.30673967        4
Au      23.36280805      25.29098159      64.30673967        4
Au      26.28315906      25.29098159      64.30673967        4
Au      29.20351006      25.29098159      64.30673967        4
Au      32.12386107      25.29098159      64.30673967        4
Au      35.04421208      25.29098159      64.30673967        4
Au      37.96456308      25.29098159      64.30673967        4
Au      40.88491409      25.29098159      64.30673967        4
Au      43.80526509      25.29098159      64.30673967        4
Au      46.72561610      25.29098159      64.30673967        4
Au      49.64596711      25.29098159      64.30673967        4
Au      52.56631811      25.29098159      64.30673967        4
Au      55.48666912      25.29098159      64.30673967        4
Au      58.40702013      25.29098159      64.30673967        4
Au      61.32737113      25.29098159      64.30673967        4
Au      64.24772214      25.29098159      64.30673967        4
Au      67.16807314      25.29098159      64.30673967        4
Au      70.08842415      25.29098159      64.30673967        4
Au      73.00877516      25.29098159      64.30673967        4
Au      75.92912616      25.29098159      64.30673967        4
Au      78.84947717      25.29098159      64.30673967        4
Au      81.76982818      25.29098159      64.30673967        4
Au      84.69017918      25.29098159      64.30673967        4
Au      87.61053019      25.29098159      64.30673967        4
Au      90.53088120      25.29098159      64.30673967        4
Au      93.45123220      25.29098159      64.30673967        4
Au      96.37158321      25.29098159      64.30673967        4
Au      99.29193421      25.29098159      64.30673967        4
Au       1.46017550      27.82007975      64.30673967        4
Au       4.38052651      27.82007975      64.30673967        4
Au       7.30087752      27.82007975      64.30673967        4
Au      10.22122852      27.82007975      64.30673967        4
Au      13.14157953      27.82007975      64.30673967        4
Au      16.06193053      27.82007975      64.30673967        4
Au      18.98228154      27.82007975      64.30673967        4
Au      21.90263255      27.82007975      64.30673967        4
Au      24.82298355      27.82007975      64.30673967        4
Au      27.74333456      27.82007975      64.30673967        4
Au      30.66368557      27.82007975      64.30673967        4
Au      33.58403657      27.82007975      64.30673967        4
Au      36.50438758      27.82007975      64.30673967        4
Au      39.42473859      27.82007975      64.30673967        4
Au      42.34508959      27.82007975      64.30673967        4
Au      45.26544060      27.82007975      64.30673967        4
Au      48.18579160      27.82007975      64.30673967        4
Au      51.10614261      27.82007975      64.30673967        4
Au      54.02649362      27.82007975      64.30673967        4
Au      56.94684462      27.82007975      64.30673967        4
Au      59.86719563      27.82007975      64.30673967        4
Au      62.78754664      27.82007975      64.30673967        4
Au      65.70789764      27.82007975      64.30673967        4
Au      68.62824865      27.82007975      64.30673967        4
Au      71.54859965      27.82007975      64.30673967        4
Au      74.46895066      27.82007975      64.30673967        4
Au      77.38930167      27.82007975      64.30673967        4
Au      80.30965267      27.82007975      64.30673967        4
Au      83.23000368      27.82007975      64.30673967        4
Au      86.15035469      27.82007975      64.30673967        4
Au      89.07070569      27.82007975      64.30673967        4
Au      91.99105670      27.82007975      64.30673967        4
Au      94.91140770      27.82007975      64.30673967        4
Au      97.83175871      27.82007975      64.30673967        4
Au     100.75210972      27.82007975      64.30673967        4
Au       0.00000000      30.34917791      64.30673967        4
Au       2.92035101      30.34917791      64.30673967        4
Au       5.84070201      30.34917791      64.30673967        4
Au       8.76105302      30.34917791      64.30673967        4
Au      11.68140403      30.34917791      64.30673967        4
Au      14.60175503      30.34917791      64.30673967        4
Au      17.52210604      30.34917791      64.30673967        4
Au      20.44245704      30.34917791      64.30673967        4
Au      23.36280805      30.34917791      64.30673967        4
Au      26.28315906      30.34917791      64.30673967        4
Au      29.20351006      30.34917791      64.30673967        4
Au      32.12386107      30.34917791      64.30673967        4
Au      35.04421208      30.34917791      64.30673967        4
Au      37.96456308      30.34917791      64.30673967        4
Au      40.88491409      30.34917791      64.30673967        4
Au      43.80526509      30.34917791      64.30673967        4
Au      46.72561610      30.34917791      64.30673967        4
Au      49.64596711      30.34917791      64.30673967        4
Au      52.56631811      30.34917791      64.30673967        4
Au      55.48666912      30.34917791      64.30673967        4
Au      58.40702013      30.34917791      64.30673967        4
Au      61.32737113      30.34917791      64.30673967        4
Au      64.24772214      30.34917791      64.30673967        4
Au      67.16807314      30.34917791      64.30673967        4
Au      70.08842415      30.34917791      64.30673967        4
Au      73.00877516      30.34917791      64.30673967        4
Au      75.92912616      30.34917791      64.30673967        4
Au      78.84947717      30.34917791      64.30673967        4
Au      81.76982818      30.34917791      64.30673967        4
Au      84.69017918      30.34917791      64.30673967        4
Au      87.61053019      30.34917791      64.30673967        4
Au      90.53088120      30.34917791      64.30673967        4
Au      93.45123220      30.34917791      64.30673967        4
Au      96.37158321      30.34917791      64.30673967        4
Au      99.29193421      30.34917791      64.30673967        4
Au       1.46017550      32.87827607      64.30673967        4
Au       4.38052651      32.87827607      64.30673967        4
Au       7.30087752      32.87827607      64.30673967        4
Au      10.22122852      32.87827607      64.30673967        4
Au      13.14157953      32.87827607      64.30673967        4
Au      16.06193053      32.87827607      64.30673967        4
Au      18.98228154      32.87827607      64.30673967        4
Au      21.90263255      32.87827607      64.30673967        4
Au      24.82298355      32.87827607      64.30673967        4
Au      27.74333456      32.87827607      64.30673967        4
Au      30.66368557      32.87827607      64.30673967        4
Au      33.58403657      32.87827607      64.30673967        4
Au      36.50438758      32.87827607      64.30673967        4
Au      39.42473859      32.87827607      64.30673967        4
Au      42.34508959      32.87827607      64.30673967        4
Au      45.26544060      32.87827607      64.30673967        4
Au      48.18579160      32.87827607      64.30673967        4
Au      51.10614261      32.87827607      64.30673967        4
Au      54.02649362      32.87827607      64.30673967        4
Au      56.94684462      32.87827607      64.30673967        4
Au      59.86719563      32.87827607      64.30673967        4
Au      62.78754664      32.87827607      64.30673967        4
Au      65.70789764      32.87827607      64.30673967        4
Au      68.62824865      32.87827607      64.30673967        4
Au      71.54859965      32.87827607      64.30673967        4
Au      74.46895066      32.87827607      64.30673967        4
Au      77.38930167      32.87827607      64.30673967        4
Au      80.30965267      32.87827607      64.30673967        4
Au      83.23000368      32.87827607      64.30673967        4
Au      86.15035469      32.87827607      64.30673967        4
Au      89.07070569      32.87827607      64.30673967        4
Au      91.99105670      32.87827607      64.30673967        4
Au      94.91140770      32.87827607      64.30673967        4
Au      97.83175871      32.87827607      64.30673967        4
Au     100.75210972      32.87827607      64.30673967        4
Au       0.00000000      35.40737423      64.30673967        4
Au       2.92035101      35.40737423      64.30673967        4
Au       5.84070201      35.40737423      64.30673967        4
Au       8.76105302      35.40737423      64.30673967        4
Au      11.68140403      35.40737423      64.30673967        4
Au      14.60175503      35.40737423      64.30673967        4
Au      17.52210604      35.40737423      64.30673967        4
Au      20.44245704      35.40737423      64.30673967        4
Au      23.36280805      35.40737423      64.30673967        4
Au      26.28315906      35.40737423      64.30673967        4
Au      29.20351006      35.40737423      64.30673967        4
Au      32.12386107      35.40737423      64.30673967        4
Au      35.04421208      35.40737423      64.30673967        4
Au      37.96456308      35.40737423      64.30673967        4
Au      40.88491409      35.40737423      64.30673967        4
Au      43.80526509      35.40737423      64.30673967        4
Au      46.72561610      35.40737423      64.30673967        4
Au      49.64596711      35.40737423      64.30673967        4
Au      52.56631811      35.40737423      64.30673967        4
Au      55.48666912      35.40737423      64.30673967        4
Au      58.40702013      35.40737423      64.30673967        4
Au      61.32737113      35.40737423      64.30673967        4
Au      64.24772214      35.40737423      64.30673967        4
Au      67.16807314      35.40737423      64.30673967        4
Au      70.08842415      35.40737423      64.30673967        4
Au      73.00877516      35.40737423      64.30673967        4
Au      75.92912616      35.40737423      64.30673967        4
Au      78.84947717      35.40737423      64.30673967        4
Au      81.76982818      35.40737423      64.30673967        4
Au      84.69017918      35.40737423      64.30673967        4
Au      87.61053019      35.40737423      64.30673967        4
Au      90.53088120      35.40737423      64.30673967        4
Au      93.45123220      35.40737423      64.30673967        4
Au      96.37158321      35.40737423      64.30673967        4
Au      99.29193421      35.40737423      64.30673967        4
Au       1.46017550      37.93647239      64.30673967        4
Au       4.38052651      37.93647239      64.30673967        4
Au       7.30087752      37.93647239      64.30673967        4
Au      10.22122852      37.93647239      64.30673967        4
Au      13.14157953      37.93647239      64.30673967        4
Au      16.06193053      37.93647239      64.30673967        4
Au      18.98228154      37.93647239      64.30673967        4
Au      21.90263255      37.93647239      64.30673967        4
Au      24.82298355      37.93647239      64.30673967        4
Au      27.74333456      37.93647239      64.30673967        4
Au      30.66368557      37.93647239      64.30673967        4
Au      33.58403657      37.93647239      64.30673967        4
Au      36.50438758      37.93647239      64.30673967        4
Au      39.42473859      37.93647239      64.30673967        4
Au      42.34508959      37.93647239      64.30673967        4
Au      45.26544060      37.93647239      64.30673967        4
Au      48.18579160      37.93647239      64.30673967        4
Au      51.10614261      37.93647239      64.30673967        4
Au      54.02649362      37.93647239      64.30673967        4
Au      56.94684462      37.93647239      64.30673967        4
Au      59.86719563      37.93647239      64.30673967        4
Au      62.78754664      37.93647239      64.30673967        4
Au      65.70789764      37.93647239      64.30673967        4
Au      68.62824865      37.93647239      64.30673967        4
Au      71.54859965      37.93647239      64.30673967        4
Au      74.46895066      37.93647239      64.30673967        4
Au      77.38930167      37.93647239      64.30673967        4
Au      80.30965267      37.93647239      64.30673967        4
Au      83.23000368      37.93647239      64.30673967        4
Au      86.15035469      37.93647239      64.30673967        4
Au      89.07070569      37.93647239      64.30673967        4
Au      91.99105670      37.93647239      64.30673967        4
Au      94.91140770      37.93647239      64.30673967        4
Au      97.83175871      37.93647239      64.30673967        4
Au     100.75210972      37.93647239      64.30673967        4
Au       0.00000000      40.46557055      64.30673967        4
Au       2.92035101      40.46557055      64.30673967        4
Au       5.84070201      40.46557055      64.30673967        4
Au       8.76105302      40.46557055      64.30673967        4
Au      11.68140403      40.46557055      64.30673967        4
Au      14.60175503      40.46557055      64.30673967        4
Au      17.52210604      40.46557055      64.30673967        4
Au      20.44245704      40.46557055      64.30673967        4
Au      23.36280805      40.46557055      64.30673967        4
Au      26.28315906      40.46557055      64.30673967        4
Au      29.20351006      40.46557055      64.30673967        4
Au      32.12386107      40.46557055      64.30673967        4
Au      35.04421208      40.46557055      64.30673967        4
Au      37.96456308      40.46557055      64.30673967        4
Au      40.88491409      40.46557055      64.30673967        4
Au      43.80526509      40.46557055      64.30673967        4
Au      46.72561610      40.46557055      64.30673967        4
Au      49.64596711      40.46557055      64.30673967        4
Au      52.56631811      40.46557055      64.30673967        4
Au      55.48666912      40.46557055      64.30673967        4
Au      58.40702013      40.46557055      64.30673967        4
Au      61.32737113      40.46557055      64.30673967        4
Au      64.24772214      40.46557055      64.30673967        4
Au      67.16807314      40.46557055      64.30673967        4
Au      70.08842415      40.46557055      64.30673967        4
Au      73.00877516      40.46557055      64.30673967        4
Au      75.92912616      40.46557055      64.30673967        4
Au      78.84947717      40.46557055      64.30673967        4
Au      81.76982818      40.46557055      64.30673967        4
Au      84.69017918      40.46557055      64.30673967        4
Au      87.61053019      40.46557055      64.30673967        4
Au      90.53088120      40.46557055      64.30673967        4
Au      93.45123220      40.46557055      64.30673967        4
Au      96.37158321      40.46557055      64.30673967        4
Au      99.29193421      40.46557055      64.30673967        4
Au       1.46017550      42.99466871      64.30673967        4
Au       4.38052651      42.99466871      64.30673967        4
Au       7.30087752      42.99466871      64.30673967        4
Au      10.22122852      42.99466871      64.30673967        4
Au      13.14157953      42.99466871      64.30673967        4
Au      16.06193053      42.99466871      64.30673967        4
Au      18.98228154      42.99466871      64.30673967        4
Au      21.90263255      42.99466871      64.30673967        4
Au      24.82298355      42.99466871      64.30673967        4
Au      27.74333456      42.99466871      64.30673967        4
Au      30.66368557      42.99466871      64.30673967        4
Au      33.58403657      42.99466871      64.30673967        4
Au      36.50438758      42.99466871      64.30673967        4
Au      39.42473859      42.99466871      64.30673967        4
Au      42.34508959      42.99466871      64.30673967        4
Au      45.26544060      42.99466871      64.30673967        4
Au      48.18579160      42.99466871      64.30673967        4
Au      51.10614261      42.99466871      64.30673967        4
Au      54.02649362      42.99466871      64.30673967        4
Au      56.94684462      42.99466871      64.30673967        4
Au      59.86719563      42.99466871      64.30673967        4
Au      62.78754664      42.99466871      64.30673967        4
Au      65.70789764      42.99466871      64.30673967        4
Au      68.62824865      42.99466871      64.30673967        4
Au      71.54859965      42.99466871      64.30673967        4
Au      74.46895066      42.99466871      64.30673967        4
Au      77.38930167      42.99466871      64.30673967        4
Au      80.30965267      42.99466871      64.30673967        4
Au      83.23000368      42.99466871      64.30673967        4
Au      86.15035469      42.99466871      64.30673967        4
Au      89.07070569      42.99466871      64.30673967        4
Au      91.99105670      42.99466871      64.30673967        4
Au      94.91140770      42.99466871      64.30673967        4
Au      97.83175871      42.99466871      64.30673967        4
Au     100.75210972      42.99466871      64.30673967        4
Au       0.00000000      45.52376687      64.30673967        4
Au       2.92035101      45.52376687      64.30673967        4
Au       5.84070201      45.52376687      64.30673967        4
Au       8.76105302      45.52376687      64.30673967        4
Au      11.68140403      45.52376687      64.30673967        4
Au      14.60175503      45.52376687      64.30673967        4
Au      17.52210604      45.52376687      64.30673967        4
Au      20.44245704      45.52376687      64.30673967        4
Au      23.36280805      45.52376687      64.30673967        4
Au      26.28315906      45.52376687      64.30673967        4
Au      29.20351006      45.52376687      64.30673967        4
Au      32.12386107      45.52376687      64.30673967        4
Au      35.04421208      45.52376687      64.30673967        4
Au      37.96456308      45.52376687      64.30673967        4
Au      40.88491409      45.52376687      64.30673967        4
Au      43.80526509      45.52376687      64.30673967        4
Au      46.72561610      45.52376687      64.30673967        4
Au      49.64596711      45.52376687      64.30673967        4
Au      52.56631811      45.52376687      64.30673967        4
Au      55.48666912      45.52376687      64.30673967        4
Au      58.40702013      45.52376687      64.30673967        4
Au      61.32737113      45.52376687      64.30673967        4
Au      64.24772214      45.52376687      64.30673967        4
Au      67.16807314      45.52376687      64.30673967        4
Au      70.08842415      45.52376687      64.30673967        4
Au      73.00877516      45.52376687      64.30673967        4
Au      75.92912616      45.52376687      64.30673967        4
Au      78.84947717      45.52376687      64.30673967        4
Au      81.76982818      45.52376687      64.30673967        4
Au      84.69017918      45.52376687      64.30673967        4
Au      87.61053019      45.52376687      64.30673967        4
Au      90.53088120      45.52376687      64.30673967        4
Au      93.45123220      45.52376687      64.30673967        4
Au      96.37158321      45.52376687      64.30673967        4
Au      99.29193421      45.52376687      64.30673967        4
Au       1.46017550      48.05286503      64.30673967        4
Au       4.38052651      48.05286503      64.30673967        4
Au       7.30087752      48.05286503      64.30673967        4
Au      10.22122852      48.05286503      64.30673967        4
Au      13.14157953      48.05286503      64.30673967        4
Au      16.06193053      48.05286503      64.30673967        4
Au      18.98228154      48.05286503      64.30673967        4
Au      21.90263255      48.05286503      64.30673967        4
Au      24.82298355      48.05286503      64.30673967        4
Au      27.74333456      48.05286503      64.30673967        4
Au      30.66368557      48.05286503      64.30673967        4
Au      33.58403657      48.05286503      64.30673967        4
Au      36.50438758      48.05286503      64.30673967        4
Au      39.42473859      48.05286503      64.30673967        4
Au      42.34508959      48.05286503      64.30673967        4
Au      45.26544060      48.05286503      64.30673967        4
Au      48.18579160      48.05286503      64.30673967        4
Au      51.10614261      48.05286503      64.30673967        4
Au      54.02649362      48.05286503      64.30673967        4
Au      56.94684462      48.05286503      64.30673967        4
Au      59.86719563      48.05286503      64.30673967        4
Au      62.78754664      48.05286503      64.30673967        4
Au      65.70789764      48.05286503      64.30673967        4
Au      68.62824865      48.05286503      64.30673967        4
Au      71.54859965      48.05286503      64.30673967        4
Au      74.46895066      48.05286503      64.30673967        4
Au      77.38930167      48.05286503      64.30673967        4
Au      80.30965267      48.05286503      64.30673967        4
Au      83.23000368      48.05286503      64.30673967        4
Au      86.15035469      48.05286503      64.30673967        4
Au      89.07070569      48.05286503      64.30673967        4
Au      91.99105670      48.05286503      64.30673967        4
Au      94.91140770      48.05286503      64.30673967        4
Au      97.83175871      48.05286503      64.30673967        4
Au     100.75210972      48.05286503      64.30673967        4
Au       1.46017550       0.84303272      66.69119628        3
Au       4.38052651       0.84303272      66.69119628        3
Au       7.30087752       0.84303272      66.69119628        3
Au      10.22122852       0.84303272      66.69119628        3
Au      13.14157953       0.84303272      66.69119628        3
Au      16.06193053       0.84303272      66.69119628        3
Au      18.98228154       0.84303272      66.69119628        3
Au      21.90263255       0.84303272      66.69119628        3
Au      24.82298355       0.84303272      66.69119628        3
Au      27.74333456       0.84303272      66.69119628        3
Au      30.66368557       0.84303272      66.69119628        3
Au      33.58403657       0.84303272      66.69119628        3
Au      36.50438758       0.84303272      66.69119628        3
Au      39.42473859       0.84303272      66.69119628        3
Au      42.34508959       0.84303272      66.69119628        3
Au      45.26544060       0.84303272      66.69119628        3
Au      48.18579160       0.84303272      66.69119628        3
Au      51.10614261       0.84303272      66.69119628        3
Au      54.02649362       0.84303272      66.69119628        3
Au      56.94684462       0.84303272      66.69119628        3
Au      59.86719563       0.84303272      66.69119628        3
Au      62.78754664       0.84303272      66.69119628        3
Au      65.70789764       0.84303272      66.69119628        3
Au      68.62824865       0.84303272      66.69119628        3
Au      71.54859965       0.84303272      66.69119628        3
Au      74.46895066       0.84303272      66.69119628        3
Au      77.38930167       0.84303272      66.69119628        3
Au      80.30965267       0.84303272      66.69119628        3
Au      83.23000368       0.84303272      66.69119628        3
Au      86.15035469       0.84303272      66.69119628        3
Au      89.07070569       0.84303272      66.69119628        3
Au      91.99105670       0.84303272      66.69119628        3
Au      94.91140770       0.84303272      66.69119628        3
Au      97.83175871       0.84303272      66.69119628        3
Au     100.75210972       0.84303272      66.69119628        3
Au       0.00000000       3.37213088      66.69119628        3
Au       2.92035101       3.37213088      66.69119628        3
Au       5.84070201       3.37213088      66.69119628        3
Au       8.76105302       3.37213088      66.69119628        3
Au      11.68140403       3.37213088      66.69119628        3
Au      14.60175503       3.37213088      66.69119628        3
Au      17.52210604       3.37213088      66.69119628        3
Au      20.44245704       3.37213088      66.69119628        3
Au      23.36280805       3.37213088      66.69119628        3
Au      26.28315906       3.37213088      66.69119628        3
Au      29.20351006       3.37213088      66.69119628        3
Au      32.12386107       3.37213088      66.69119628        3
Au      35.04421208       3.37213088      66.69119628        3
Au      37.96456308       3.37213088      66.69119628        3
Au      40.88491409       3.37213088      66.69119628        3
Au      43.80526509       3.37213088      66.69119628        3
Au      46.72561610       3.37213088      66.69119628        3
Au      49.64596711       3.37213088      66.69119628        3
Au      52.56631811       3.37213088      66.69119628        3
Au      55.48666912       3.37213088      66.69119628        3
Au      58.40702013       3.37213088      66.69119628        3
Au      61.32737113       3.37213088      66.69119628        3
Au      64.24772214       3.37213088      66.69119628        3
Au      67.16807314       3.37213088      66.69119628        3
Au      70.08842415       3.37213088      66.69119628        3
Au      73.00877516       3.37213088      66.69119628        3
Au      75.92912616       3.37213088      66.69119628        3
Au      78.84947717       3.37213088      66.69119628        3
Au      81.76982818       3.37213088      66.69119628        3
Au      84.69017918       3.37213088      66.69119628        3
Au      87.61053019       3.37213088      66.69119628        3
Au      90.53088120       3.37213088      66.69119628        3
Au      93.45123220       3.37213088      66.69119628        3
Au      96.37158321       3.37213088      66.69119628        3
Au      99.29193421       3.37213088      66.69119628        3
Au       1.46017550       5.90122904      66.69119628        3
Au       4.38052651       5.90122904      66.69119628        3
Au       7.30087752       5.90122904      66.69119628        3
Au      10.22122852       5.90122904      66.69119628        3
Au      13.14157953       5.90122904      66.69119628        3
Au      16.06193053       5.90122904      66.69119628        3
Au      18.98228154       5.90122904      66.69119628        3
Au      21.90263255       5.90122904      66.69119628        3
Au      24.82298355       5.90122904      66.69119628        3
Au      27.74333456       5.90122904      66.69119628        3
Au      30.66368557       5.90122904      66.69119628        3
Au      33.58403657       5.90122904      66.69119628        3
Au      36.50438758       5.90122904      66.69119628        3
Au      39.42473859       5.90122904      66.69119628        3
Au      42.34508959       5.90122904      66.69119628        3
Au      45.26544060       5.90122904      66.69119628        3
Au      48.18579160       5.90122904      66.69119628        3
Au      51.10614261       5.90122904      66.69119628        3
Au      54.02649362       5.90122904      66.69119628        3
Au      56.94684462       5.90122904      66.69119628        3
Au      59.86719563       5.90122904      66.69119628        3
Au      62.78754664       5.90122904      66.69119628        3
Au      65.70789764       5.90122904      66.69119628        3
Au      68.62824865       5.90122904      66.69119628        3
Au      71.54859965       5.90122904      66.69119628        3
Au      74.46895066       5.90122904      66.69119628        3
Au      77.38930167       5.90122904      66.69119628        3
Au      80.30965267       5.90122904      66.69119628        3
Au      83.23000368       5.90122904      66.69119628        3
Au      86.15035469       5.90122904      66.69119628        3
Au      89.07070569       5.90122904      66.69119628        3
Au      91.99105670       5.90122904      66.69119628        3
Au      94.91140770       5.90122904      66.69119628        3
Au      97.83175871       5.90122904      66.69119628        3
Au     100.75210972       5.90122904      66.69119628        3
Au       0.00000000       8.43032720      66.69119628        3
Au       2.92035101       8.43032720      66.69119628        3
Au       5.84070201       8.43032720      66.69119628        3
Au       8.76105302       8.43032720      66.69119628        3
Au      11.68140403       8.43032720      66.69119628        3
Au      14.60175503       8.43032720      66.69119628        3
Au      17.52210604       8.43032720      66.69119628        3
Au      20.44245704       8.43032720      66.69119628        3
Au      23.36280805       8.43032720      66.69119628        3
Au      26.28315906       8.43032720      66.69119628        3
Au      29.20351006       8.43032720      66.69119628        3
Au      32.12386107       8.43032720      66.69119628        3
Au      35.04421208       8.43032720      66.69119628        3
Au      37.96456308       8.43032720      66.69119628        3
Au      40.88491409       8.43032720      66.69119628        3
Au      43.80526509       8.43032720      66.69119628        3
Au      46.72561610       8.43032720      66.69119628        3
Au      49.64596711       8.43032720      66.69119628        3
Au      52.56631811       8.43032720      66.69119628        3
Au      55.48666912       8.43032720      66.69119628        3
Au      58.40702013       8.43032720      66.69119628        3
Au      61.32737113       8.43032720      66.69119628        3
Au      64.24772214       8.43032720      66.69119628        3
Au      67.16807314       8.43032720      66.69119628        3
Au      70.08842415       8.43032720      66.69119628        3
Au      73.00877516       8.43032720      66.69119628        3
Au      75.92912616       8.43032720      66.69119628        3
Au      78.84947717       8.43032720      66.69119628        3
Au      81.76982818       8.43032720      66.69119628        3
Au      84.69017918       8.43032720      66.69119628        3
Au      87.61053019       8.43032720      66.69119628        3
Au      90.53088120       8.43032720      66.69119628        3
Au      93.45123220       8.43032720      66.69119628        3
Au      96.37158321       8.43032720      66.69119628        3
Au      99.29193421       8.43032720      66.69119628        3
Au       1.46017550      10.95942536      66.69119628        3
Au       4.38052651      10.95942536      66.69119628        3
Au       7.30087752      10.95942536      66.69119628        3
Au      10.22122852      10.95942536      66.69119628        3
Au      13.14157953      10.95942536      66.69119628        3
Au      16.06193053      10.95942536      66.69119628        3
Au      18.98228154      10.95942536      66.69119628        3
Au      21.90263255      10.95942536      66.69119628        3
Au      24.82298355      10.95942536      66.69119628        3
Au      27.74333456      10.95942536      66.69119628        3
Au      30.66368557      10.95942536      66.69119628        3
Au      33.58403657      10.95942536      66.69119628        3
Au      36.50438758      10.95942536      66.69119628        3
Au      39.42473859      10.95942536      66.69119628        3
Au      42.34508959      10.95942536      66.69119628        3
Au      45.26544060      10.95942536      66.69119628        3
Au      48.18579160      10.95942536      66.69119628        3
Au      51.10614261      10.95942536      66.69119628        3
Au      54.02649362      10.95942536      66.69119628        3
Au      56.94684462      10.95942536      66.69119628        3
Au      59.86719563      10.95942536      66.69119628        3
Au      62.78754664      10.95942536      66.69119628        3
Au      65.70789764      10.95942536      66.69119628        3
Au      68.62824865      10.95942536      66.69119628        3
Au      71.54859965      10.95942536      66.69119628        3
Au      74.46895066      10.95942536      66.69119628        3
Au      77.38930167      10.95942536      66.69119628        3
Au      80.30965267      10.95942536      66.69119628        3
Au      83.23000368      10.95942536      66.69119628        3
Au      86.15035469      10.95942536      66.69119628        3
Au      89.07070569      10.95942536      66.69119628        3
Au      91.99105670      10.95942536      66.69119628        3
Au      94.91140770      10.95942536      66.69119628        3
Au      97.83175871      10.95942536      66.69119628        3
Au     100.75210972      10.95942536      66.69119628        3
Au       0.00000000      13.48852352      66.69119628        3
Au       2.92035101      13.48852352      66.69119628        3
Au       5.84070201      13.48852352      66.69119628        3
Au       8.76105302      13.48852352      66.69119628        3
Au      11.68140403      13.48852352      66.69119628        3
Au      14.60175503      13.48852352      66.69119628        3
Au      17.52210604      13.48852352      66.69119628        3
Au      20.44245704      13.48852352      66.69119628        3
Au      23.36280805      13.48852352      66.69119628        3
Au      26.28315906      13.48852352      66.69119628        3
Au      29.20351006      13.48852352      66.69119628        3
Au      32.12386107      13.48852352      66.69119628        3
Au      35.04421208      13.48852352      66.69119628        3
Au      37.96456308      13.48852352      66.69119628        3
Au      40.88491409      13.48852352      66.69119628        3
Au      43.80526509      13.48852352      66.69119628        3
Au      46.72561610      13.48852352      66.69119628        3
Au      49.64596711      13.48852352      66.69119628        3
Au      52.56631811      13.48852352      66.69119628        3
Au      55.48666912      13.48852352      66.69119628        3
Au      58.40702013      13.48852352      66.69119628        3
Au      61.32737113      13.48852352      66.69119628        3
Au      64.24772214      13.48852352      66.69119628        3
Au      67.16807314      13.48852352      66.69119628        3
Au      70.08842415      13.48852352      66.69119628        3
Au      73.00877516      13.48852352      66.69119628        3
Au      75.92912616      13.48852352      66.69119628        3
Au      78.84947717      13.48852352      66.69119628        3
Au      81.76982818      13.48852352      66.69119628        3
Au      84.69017918      13.48852352      66.69119628        3
Au      87.61053019      13.48852352      66.69119628        3
Au      90.53088120      13.48852352      66.69119628        3
Au      93.45123220      13.48852352      66.69119628        3
Au      96.37158321      13.48852352      66.69119628        3
Au      99.29193421      13.48852352      66.69119628        3
Au       1.46017550      16.01762168      66.69119628        3
Au       4.38052651      16.01762168      66.69119628        3
Au       7.30087752      16.01762168      66.69119628        3
Au      10.22122852      16.01762168      66.69119628        3
Au      13.14157953      16.01762168      66.69119628        3
Au      16.06193053      16.01762168      66.69119628        3
Au      18.98228154      16.01762168      66.69119628        3
Au      21.90263255      16.01762168      66.69119628        3
Au      24.82298355      16.01762168      66.69119628        3
Au      27.74333456      16.01762168      66.69119628        3
Au      30.66368557      16.01762168      66.69119628        3
Au      33.58403657      16.01762168      66.69119628        3
Au      36.50438758      16.01762168      66.69119628        3
Au      39.42473859      16.01762168      66.69119628        3
Au      42.34508959      16.01762168      66.69119628        3
Au      45.26544060      16.01762168      66.69119628        3
Au      48.18579160      16.01762168      66.69119628        3
Au      51.10614261      16.01762168      66.69119628        3
Au      54.02649362      16.01762168      66.69119628        3
Au      56.94684462      16.01762168      66.69119628        3
Au      59.86719563      16.01762168      66.69119628        3
Au      62.78754664      16.01762168      66.69119628        3
Au      65.70789764      16.01762168      66.69119628        3
Au      68.62824865      16.01762168      66.69119628        3
Au      71.54859965      16.01762168      66.69119628        3
Au      74.46895066      16.01762168      66.69119628        3
Au      77.38930167      16.01762168      66.69119628        3
Au      80.30965267      16.01762168      66.69119628        3
Au      83.23000368      16.01762168      66.69119628        3
Au      86.15035469      16.01762168      66.69119628        3
Au      89.07070569      16.01762168      66.69119628        3
Au      91.99105670      16.01762168      66.69119628        3
Au      94.91140770      16.01762168      66.69119628        3
Au      97.83175871      16.01762168      66.69119628        3
Au     100.75210972      16.01762168      66.69119628        3
Au       0.00000000      18.54671984      66.69119628        3
Au       2.92035101      18.54671984      66.69119628        3
Au       5.84070201      18.54671984      66.69119628        3
Au       8.76105302      18.54671984      66.69119628        3
Au      11.68140403      18.54671984      66.69119628        3
Au      14.60175503      18.54671984      66.69119628        3
Au      17.52210604      18.54671984      66.69119628        3
Au      20.44245704      18.54671984      66.69119628        3
Au      23.36280805      18.54671984      66.69119628        3
Au      26.28315906      18.54671984      66.69119628        3
Au      29.20351006      18.54671984      66.69119628        3
Au      32.12386107      18.54671984      66.69119628        3
Au      35.04421208      18.54671984      66.69119628        3
Au      37.96456308      18.54671984      66.69119628        3
Au      40.88491409      18.54671984      66.69119628        3
Au      43.80526509      18.54671984      66.69119628        3
Au      46.72561610      18.54671984      66.69119628        3
Au      49.64596711      18.54671984      66.69119628        3
Au      52.56631811      18.54671984      66.69119628        3
Au      55.48666912      18.54671984      66.69119628        3
Au      58.40702013      18.54671984      66.69119628        3
Au      61.32737113      18.54671984      66.69119628        3
Au      64.24772214      18.54671984      66.69119628        3
Au      67.16807314      18.54671984      66.69119628        3
Au      70.08842415      18.54671984      66.69119628        3
Au      73.00877516      18.54671984      66.69119628        3
Au      75.92912616      18.54671984      66.69119628        3
Au      78.84947717      18.54671984      66.69119628        3
Au      81.76982818      18.54671984      66.69119628        3
Au      84.69017918      18.54671984      66.69119628        3
Au      87.61053019      18.54671984      66.69119628        3
Au      90.53088120      18.54671984      66.69119628        3
Au      93.45123220      18.54671984      66.69119628        3
Au      96.37158321      18.54671984      66.69119628        3
Au      99.29193421      18.54671984      66.69119628        3
Au       1.46017550      21.07581800      66.69119628        3
Au       4.38052651      21.07581800      66.69119628        3
Au       7.30087752      21.07581800      66.69119628        3
Au      10.22122852      21.07581800      66.69119628        3
Au      13.14157953      21.07581800      66.69119628        3
Au      16.06193053      21.07581800      66.69119628        3
Au      18.98228154      21.07581800      66.69119628        3
Au      21.90263255      21.07581800      66.69119628        3
Au      24.82298355      21.07581800      66.69119628        3
Au      27.74333456      21.07581800      66.69119628        3
Au      30.66368557      21.07581800      66.69119628        3
Au      33.58403657      21.07581800      66.69119628        3
Au      36.50438758      21.07581800      66.69119628        3
Au      39.42473859      21.07581800      66.69119628        3
Au      42.34508959      21.07581800      66.69119628        3
Au      45.26544060      21.07581800      66.69119628        3
Au      48.18579160      21.07581800      66.69119628        3
Au      51.10614261      21.07581800      66.69119628        3
Au      54.02649362      21.07581800      66.69119628        3
Au      56.94684462      21.07581800      66.69119628        3
Au      59.86719563      21.07581800      66.69119628        3
Au      62.78754664      21.07581800      66.69119628        3
Au      65.70789764      21.07581800      66.69119628        3
Au      68.62824865      21.07581800      66.69119628        3
Au      71.54859965      21.07581800      66.69119628        3
Au      74.46895066      21.07581800      66.69119628        3
Au      77.38930167      21.07581800      66.69119628        3
Au      80.30965267      21.07581800      66.69119628        3
Au      83.23000368      21.07581800      66.69119628        3
Au      86.15035469      21.07581800      66.69119628        3
Au      89.07070569      21.07581800      66.69119628        3
Au      91.99105670      21.07581800      66.69119628        3
Au      94.91140770      21.07581800      66.69119628        3
Au      97.83175871      21.07581800      66.69119628        3
Au     100.75210972      21.07581800      66.69119628        3
Au       0.00000000      23.60491615      66.69119628        3
Au       2.92035101      23.60491615      66.69119628        3
Au       5.84070201      23.60491615      66.69119628        3
Au       8.76105302      23.60491615      66.69119628        3
Au      11.68140403      23.60491615      66.69119628        3
Au      14.60175503      23.60491615      66.69119628        3
Au      17.52210604      23.60491615      66.69119628        3
Au      20.44245704      23.60491615      66.69119628        3
Au      23.36280805      23.60491615      66.69119628        3
Au      26.28315906      23.60491615      66.69119628        3
Au      29.20351006      23.60491615      66.69119628        3
Au      32.12386107      23.60491615      66.69119628        3
Au      35.04421208      23.60491615      66.69119628        3
Au      37.96456308      23.60491615      66.69119628        3
Au      40.88491409      23.60491615      66.69119628        3
Au      43.80526509      23.60491615      66.69119628        3
Au      46.72561610      23.60491615      66.69119628        3
Au      49.64596711      23.60491615      66.69119628        3
Au      52.56631811      23.60491615      66.69119628        3
Au      55.48666912      23.60491615      66.69119628        3
Au      58.40702013      23.60491615      66.69119628        3
Au      61.32737113      23.60491615      66.69119628        3
Au      64.24772214      23.60491615      66.69119628        3
Au      67.16807314      23.60491615      66.69119628        3
Au      70.08842415      23.60491615      66.69119628        3
Au      73.00877516      23.60491615      66.69119628        3
Au      75.92912616      23.60491615      66.69119628        3
Au      78.84947717      23.60491615      66.69119628        3
Au      81.76982818      23.60491615      66.69119628        3
Au      84.69017918      23.60491615      66.69119628        3
Au      87.61053019      23.60491615      66.69119628        3
Au      90.53088120      23.60491615      66.69119628        3
Au      93.45123220      23.60491615      66.69119628        3
Au      96.37158321      23.60491615      66.69119628        3
Au      99.29193421      23.60491615      66.69119628        3
Au       1.46017550      26.13401431      66.69119628        3
Au       4.38052651      26.13401431      66.69119628        3
Au       7.30087752      26.13401431      66.69119628        3
Au      10.22122852      26.13401431      66.69119628        3
Au      13.14157953      26.13401431      66.69119628        3
Au      16.06193053      26.13401431      66.69119628        3
Au      18.98228154      26.13401431      66.69119628        3
Au      21.90263255      26.13401431      66.69119628        3
Au      24.82298355      26.13401431      66.69119628        3
Au      27.74333456      26.13401431      66.69119628        3
Au      30.66368557      26.13401431      66.69119628        3
Au      33.58403657      26.13401431      66.69119628        3
Au      36.50438758      26.13401431      66.69119628        3
Au      39.42473859      26.13401431      66.69119628        3
Au      42.34508959      26.13401431      66.69119628        3
Au      45.26544060      26.13401431      66.69119628        3
Au      48.18579160      26.13401431      66.69119628        3
Au      51.10614261      26.13401431      66.69119628        3
Au      54.02649362      26.13401431      66.69119628        3
Au      56.94684462      26.13401431      66.69119628        3
Au      59.86719563      26.13401431      66.69119628        3
Au      62.78754664      26.13401431      66.69119628        3
Au      65.70789764      26.13401431      66.69119628        3
Au      68.62824865      26.13401431      66.69119628        3
Au      71.54859965      26.13401431      66.69119628        3
Au      74.46895066      26.13401431      66.69119628        3
Au      77.38930167      26.13401431      66.69119628        3
Au      80.30965267      26.13401431      66.69119628        3
Au      83.23000368      26.13401431      66.69119628        3
Au      86.15035469      26.13401431      66.69119628        3
Au      89.07070569      26.13401431      66.69119628        3
Au      91.99105670      26.13401431      66.69119628        3
Au      94.91140770      26.13401431      66.69119628        3
Au      97.83175871      26.13401431      66.69119628        3
Au     100.75210972      26.13401431      66.69119628        3
Au       0.00000000      28.66311247      66.69119628        3
Au       2.92035101      28.66311247      66.69119628        3
Au       5.84070201      28.66311247      66.69119628        3
Au       8.76105302      28.66311247      66.69119628        3
Au      11.68140403      28.66311247      66.69119628        3
Au      14.60175503      28.66311247      66.69119628        3
Au      17.52210604      28.66311247      66.69119628        3
Au      20.44245704      28.66311247      66.69119628        3
Au      23.36280805      28.66311247      66.69119628        3
Au      26.28315906      28.66311247      66.69119628        3
Au      29.20351006      28.66311247      66.69119628        3
Au      32.12386107      28.66311247      66.69119628        3
Au      35.04421208      28.66311247      66.69119628        3
Au      37.96456308      28.66311247      66.69119628        3
Au      40.88491409      28.66311247      66.69119628        3
Au      43.80526509      28.66311247      66.69119628        3
Au      46.72561610      28.66311247      66.69119628        3
Au      49.64596711      28.66311247      66.69119628        3
Au      52.56631811      28.66311247      66.69119628        3
Au      55.48666912      28.66311247      66.69119628        3
Au      58.40702013      28.66311247      66.69119628        3
Au      61.32737113      28.66311247      66.69119628        3
Au      64.24772214      28.66311247      66.69119628        3
Au      67.16807314      28.66311247      66.69119628        3
Au      70.08842415      28.66311247      66.69119628        3
Au      73.00877516      28.66311247      66.69119628        3
Au      75.92912616      28.66311247      66.69119628        3
Au      78.84947717      28.66311247      66.69119628        3
Au      81.76982818      28.66311247      66.69119628        3
Au      84.69017918      28.66311247      66.69119628        3
Au      87.61053019      28.66311247      66.69119628        3
Au      90.53088120      28.66311247      66.69119628        3
Au      93.45123220      28.66311247      66.69119628        3
Au      96.37158321      28.66311247      66.69119628        3
Au      99.29193421      28.66311247      66.69119628        3
Au       1.46017550      31.19221063      66.69119628        3
Au       4.38052651      31.19221063      66.69119628        3
Au       7.30087752      31.19221063      66.69119628        3
Au      10.22122852      31.19221063      66.69119628        3
Au      13.14157953      31.19221063      66.69119628        3
Au      16.06193053      31.19221063      66.69119628        3
Au      18.98228154      31.19221063      66.69119628        3
Au      21.90263255      31.19221063      66.69119628        3
Au      24.82298355      31.19221063      66.69119628        3
Au      27.74333456      31.19221063      66.69119628        3
Au      30.66368557      31.19221063      66.69119628        3
Au      33.58403657      31.19221063      66.69119628        3
Au      36.50438758      31.19221063      66.69119628        3
Au      39.42473859      31.19221063      66.69119628        3
Au      42.34508959      31.19221063      66.69119628        3
Au      45.26544060      31.19221063      66.69119628        3
Au      48.18579160      31.19221063      66.69119628        3
Au      51.10614261      31.19221063      66.69119628        3
Au      54.02649362      31.19221063      66.69119628        3
Au      56.94684462      31.19221063      66.69119628        3
Au      59.86719563      31.19221063      66.69119628        3
Au      62.78754664      31.19221063      66.69119628        3
Au      65.70789764      31.19221063      66.69119628        3
Au      68.62824865      31.19221063      66.69119628        3
Au      71.54859965      31.19221063      66.69119628        3
Au      74.46895066      31.19221063      66.69119628        3
Au      77.38930167      31.19221063      66.69119628        3
Au      80.30965267      31.19221063      66.69119628        3
Au      83.23000368      31.19221063      66.69119628        3
Au      86.15035469      31.19221063      66.69119628        3
Au      89.07070569      31.19221063      66.69119628        3
Au      91.99105670      31.19221063      66.69119628        3
Au      94.91140770      31.19221063      66.69119628        3
Au      97.83175871      31.19221063      66.69119628        3
Au     100.75210972      31.19221063      66.69119628        3
Au       0.00000000      33.72130879      66.69119628        3
Au       2.92035101      33.72130879      66.69119628        3
Au       5.84070201      33.72130879      66.69119628        3
Au       8.76105302      33.72130879      66.69119628        3
Au      11.68140403      33.72130879      66.69119628        3
Au      14.60175503      33.72130879      66.69119628        3
Au      17.52210604      33.72130879      66.69119628        3
Au      20.44245704      33.72130879      66.69119628        3
Au      23.36280805      33.72130879      66.69119628        3
Au      26.28315906      33.72130879      66.69119628        3
Au      29.20351006      33.72130879      66.69119628        3
Au      32.12386107      33.72130879      66.69119628        3
Au      35.04421208      33.72130879      66.69119628        3
Au      37.96456308      33.72130879      66.69119628        3
Au      40.88491409      33.72130879      66.69119628        3
Au      43.80526509      33.72130879      66.69119628        3
Au      46.72561610      33.72130879      66.69119628        3
Au      49.64596711      33.72130879      66.69119628        3
Au      52.56631811      33.72130879      66.69119628        3
Au      55.48666912      33.72130879      66.69119628        3
Au      58.40702013      33.72130879      66.69119628        3
Au      61.32737113      33.72130879      66.69119628        3
Au      64.24772214      33.72130879      66.69119628        3
Au      67.16807314      33.72130879      66.69119628        3
Au      70.08842415      33.72130879      66.69119628        3
Au      73.00877516      33.72130879      66.69119628        3
Au      75.92912616      33.72130879      66.69119628        3
Au      78.84947717      33.72130879      66.69119628        3
Au      81.76982818      33.72130879      66.69119628        3
Au      84.69017918      33.72130879      66.69119628        3
Au      87.61053019      33.72130879      66.69119628        3
Au      90.53088120      33.72130879      66.69119628        3
Au      93.45123220      33.72130879      66.69119628        3
Au      96.37158321      33.72130879      66.69119628        3
Au      99.29193421      33.72130879      66.69119628        3
Au       1.46017550      36.25040695      66.69119628        3
Au       4.38052651      36.25040695      66.69119628        3
Au       7.30087752      36.25040695      66.69119628        3
Au      10.22122852      36.25040695      66.69119628        3
Au      13.14157953      36.25040695      66.69119628        3
Au      16.06193053      36.25040695      66.69119628        3
Au      18.98228154      36.25040695      66.69119628        3
Au      21.90263255      36.25040695      66.69119628        3
Au      24.82298355      36.25040695      66.69119628        3
Au      27.74333456      36.25040695      66.69119628        3
Au      30.66368557      36.25040695      66.69119628        3
Au      33.58403657      36.25040695      66.69119628        3
Au      36.50438758      36.25040695      66.69119628        3
Au      39.42473859      36.25040695      66.69119628        3
Au      42.34508959      36.25040695      66.69119628        3
Au      45.26544060      36.25040695      66.69119628        3
Au      48.18579160      36.25040695      66.69119628        3
Au      51.10614261      36.25040695      66.69119628        3
Au      54.02649362      36.25040695      66.69119628        3
Au      56.94684462      36.25040695      66.69119628        3
Au      59.86719563      36.25040695      66.69119628        3
Au      62.78754664      36.25040695      66.69119628        3
Au      65.70789764      36.25040695      66.69119628        3
Au      68.62824865      36.25040695      66.69119628        3
Au      71.54859965      36.25040695      66.69119628        3
Au      74.46895066      36.25040695      66.69119628        3
Au      77.38930167      36.25040695      66.69119628        3
Au      80.30965267      36.25040695      66.69119628        3
Au      83.23000368      36.25040695      66.69119628        3
Au      86.15035469      36.25040695      66.69119628        3
Au      89.07070569      36.25040695      66.69119628        3
Au      91.99105670      36.25040695      66.69119628        3
Au      94.91140770      36.25040695      66.69119628        3
Au      97.83175871      36.25040695      66.69119628        3
Au     100.75210972      36.25040695      66.69119628        3
Au       0.00000000      38.77950511      66.69119628        3
Au       2.92035101      38.77950511      66.69119628        3
Au       5.84070201      38.77950511      66.69119628        3
Au       8.76105302      38.77950511      66.69119628        3
Au      11.68140403      38.77950511      66.69119628        3
Au      14.60175503      38.77950511      66.69119628        3
Au      17.52210604      38.77950511      66.69119628        3
Au      20.44245704      38.77950511      66.69119628        3
Au      23.36280805      38.77950511      66.69119628        3
Au      26.28315906      38.77950511      66.69119628        3
Au      29.20351006      38.77950511      66.69119628        3
Au      32.12386107      38.77950511      66.69119628        3
Au      35.04421208      38.77950511      66.69119628        3
Au      37.96456308      38.77950511      66.69119628        3
Au      40.88491409      38.77950511      66.69119628        3
Au      43.80526509      38.77950511      66.69119628        3
Au      46.72561610      38.77950511      66.69119628        3
Au      49.64596711      38.77950511      66.69119628        3
Au      52.56631811      38.77950511      66.69119628        3
Au      55.48666912      38.77950511      66.69119628        3
Au      58.40702013      38.77950511      66.69119628        3
Au      61.32737113      38.77950511      66.69119628        3
Au      64.24772214      38.77950511      66.69119628        3
Au      67.16807314      38.77950511      66.69119628        3
Au      70.08842415      38.77950511      66.69119628        3
Au      73.00877516      38.77950511      66.69119628        3
Au      75.92912616      38.77950511      66.69119628        3
Au      78.84947717      38.77950511      66.69119628        3
Au      81.76982818      38.77950511      66.69119628        3
Au      84.69017918      38.77950511      66.69119628        3
Au      87.61053019      38.77950511      66.69119628        3
Au      90.53088120      38.77950511      66.69119628        3
Au      93.45123220      38.77950511      66.69119628        3
Au      96.37158321      38.77950511      66.69119628        3
Au      99.29193421      38.77950511      66.69119628        3
Au       1.46017550      41.30860327      66.69119628        3
Au       4.38052651      41.30860327      66.69119628        3
Au       7.30087752      41.30860327      66.69119628        3
Au      10.22122852      41.30860327      66.69119628        3
Au      13.14157953      41.30860327      66.69119628        3
Au      16.06193053      41.30860327      66.69119628        3
Au      18.98228154      41.30860327      66.69119628        3
Au      21.90263255      41.30860327      66.69119628        3
Au      24.82298355      41.30860327      66.69119628        3
Au      27.74333456      41.30860327      66.69119628        3
Au      30.66368557      41.30860327      66.69119628        3
Au      33.58403657      41.30860327      66.69119628        3
Au      36.50438758      41.30860327      66.69119628        3
Au      39.42473859      41.30860327      66.69119628        3
Au      42.34508959      41.30860327      66.69119628        3
Au      45.26544060      41.30860327      66.69119628        3
Au      48.18579160      41.30860327      66.69119628        3
Au      51.10614261      41.30860327      66.69119628        3
Au      54.02649362      41.30860327      66.69119628        3
Au      56.94684462      41.30860327      66.69119628        3
Au      59.86719563      41.30860327      66.69119628        3
Au      62.78754664      41.30860327      66.69119628        3
Au      65.70789764      41.30860327      66.69119628        3
Au      68.62824865      41.30860327      66.69119628        3
Au      71.54859965      41.30860327      66.69119628        3
Au      74.46895066      41.30860327      66.69119628        3
Au      77.38930167      41.30860327      66.69119628        3
Au      80.30965267      41.30860327      66.69119628        3
Au      83.23000368      41.30860327      66.69119628        3
Au      86.15035469      41.30860327      66.69119628        3
Au      89.07070569      41.30860327      66.69119628        3
Au      91.99105670      41.30860327      66.69119628        3
Au      94.91140770      41.30860327      66.69119628        3
Au      97.83175871      41.30860327      66.69119628        3
Au     100.75210972      41.30860327      66.69119628        3
Au       0.00000000      43.83770143      66.69119628        3
Au       2.92035101      43.83770143      66.69119628        3
Au       5.84070201      43.83770143      66.69119628        3
Au       8.76105302      43.83770143      66.69119628        3
Au      11.68140403      43.83770143      66.69119628        3
Au      14.60175503      43.83770143      66.69119628        3
Au      17.52210604      43.83770143      66.69119628        3
Au      20.44245704      43.83770143      66.69119628        3
Au      23.36280805      43.83770143      66.69119628        3
Au      26.28315906      43.83770143      66.69119628        3
Au      29.20351006      43.83770143      66.69119628        3
Au      32.12386107      43.83770143      66.69119628        3
Au      35.04421208      43.83770143      66.69119628        3
Au      37.96456308      43.83770143      66.69119628        3
Au      40.88491409      43.83770143      66.69119628        3
Au      43.80526509      43.83770143      66.69119628        3
Au      46.72561610      43.83770143      66.69119628        3
Au      49.64596711      43.83770143      66.69119628        3
Au      52.56631811      43.83770143      66.69119628        3
Au      55.48666912      43.83770143      66.69119628        3
Au      58.40702013      43.83770143      66.69119628        3
Au      61.32737113      43.83770143      66.69119628        3
Au      64.24772214      43.83770143      66.69119628        3
Au      67.16807314      43.83770143      66.69119628        3
Au      70.08842415      43.83770143      66.69119628        3
Au      73.00877516      43.83770143      66.69119628        3
Au      75.92912616      43.83770143      66.69119628        3
Au      78.84947717      43.83770143      66.69119628        3
Au      81.76982818      43.83770143      66.69119628        3
Au      84.69017918      43.83770143      66.69119628        3
Au      87.61053019      43.83770143      66.69119628        3
Au      90.53088120      43.83770143      66.69119628        3
Au      93.45123220      43.83770143      66.69119628        3
Au      96.37158321      43.83770143      66.69119628        3
Au      99.29193421      43.83770143      66.69119628        3
Au       1.46017550      46.36679959      66.69119628        3
Au       4.38052651      46.36679959      66.69119628        3
Au       7.30087752      46.36679959      66.69119628        3
Au      10.22122852      46.36679959      66.69119628        3
Au      13.14157953      46.36679959      66.69119628        3
Au      16.06193053      46.36679959      66.69119628        3
Au      18.98228154      46.36679959      66.69119628        3
Au      21.90263255      46.36679959      66.69119628        3
Au      24.82298355      46.36679959      66.69119628        3
Au      27.74333456      46.36679959      66.69119628        3
Au      30.66368557      46.36679959      66.69119628        3
Au      33.58403657      46.36679959      66.69119628        3
Au      36.50438758      46.36679959      66.69119628        3
Au      39.42473859      46.36679959      66.69119628        3
Au      42.34508959      46.36679959      66.69119628        3
Au      45.26544060      46.36679959      66.69119628        3
Au      48.18579160      46.36679959      66.69119628        3
Au      51.10614261      46.36679959      66.69119628        3
Au      54.02649362      46.36679959      66.69119628        3
Au      56.94684462      46.36679959      66.69119628        3
Au      59.86719563      46.36679959      66.69119628        3
Au      62.78754664      46.36679959      66.69119628        3
Au      65.70789764      46.36679959      66.69119628        3
Au      68.62824865      46.36679959      66.69119628        3
Au      71.54859965      46.36679959      66.69119628        3
Au      74.46895066      46.36679959      66.69119628        3
Au      77.38930167      46.36679959      66.69119628        3
Au      80.30965267      46.36679959      66.69119628        3
Au      83.23000368      46.36679959      66.69119628        3
Au      86.15035469      46.36679959      66.69119628        3
Au      89.07070569      46.36679959      66.69119628        3
Au      91.99105670      46.36679959      66.69119628        3
Au      94.91140770      46.36679959      66.69119628        3
Au      97.83175871      46.36679959      66.69119628        3
Au     100.75210972      46.36679959      66.69119628        3
Au       0.00000000      48.89589775      66.69119628        3
Au       2.92035101      48.89589775      66.69119628        3
Au       5.84070201      48.89589775      66.69119628        3
Au       8.76105302      48.89589775      66.69119628        3
Au      11.68140403      48.89589775      66.69119628        3
Au      14.60175503      48.89589775      66.69119628        3
Au      17.52210604      48.89589775      66.69119628        3
Au      20.44245704      48.89589775      66.69119628        3
Au      23.36280805      48.89589775      66.69119628        3
Au      26.28315906      48.89589775      66.69119628        3
Au      29.20351006      48.89589775      66.69119628        3
Au      32.12386107      48.89589775      66.69119628        3
Au      35.04421208      48.89589775      66.69119628        3
Au      37.96456308      48.89589775      66.69119628        3
Au      40.88491409      48.89589775      66.69119628        3
Au      43.80526509      48.89589775      66.69119628        3
Au      46.72561610      48.89589775      66.69119628        3
Au      49.64596711      48.89589775      66.69119628        3
Au      52.56631811      48.89589775      66.69119628        3
Au      55.48666912      48.89589775      66.69119628        3
Au      58.40702013      48.89589775      66.69119628        3
Au      61.32737113      48.89589775      66.69119628        3
Au      64.24772214      48.89589775      66.69119628        3
Au      67.16807314      48.89589775      66.69119628        3
Au      70.08842415      48.89589775      66.69119628        3
Au      73.00877516      48.89589775      66.69119628        3
Au      75.92912616      48.89589775      66.69119628        3
Au      78.84947717      48.89589775      66.69119628        3
Au      81.76982818      48.89589775      66.69119628        3
Au      84.69017918      48.89589775      66.69119628        3
Au      87.61053019      48.89589775      66.69119628        3
Au      90.53088120      48.89589775      66.69119628        3
Au      93.45123220      48.89589775      66.69119628        3
Au      96.37158321      48.89589775      66.69119628        3
Au      99.29193421      48.89589775      66.69119628        3
Au       0.00000000       1.68606544      69.07565289        2
Au       2.92035101       1.68606544      69.07565289        2
Au       5.84070201       1.68606544      69.07565289        2
Au       8.76105302       1.68606544      69.07565289        2
Au      11.68140403       1.68606544      69.07565289        2
Au      14.60175503       1.68606544      69.07565289        2
Au      17.52210604       1.68606544      69.07565289        2
Au      20.44245704       1.68606544      69.07565289        2
Au      23.36280805       1.68606544      69.07565289        2
Au      26.28315906       1.68606544      69.07565289        2
Au      29.20351006       1.68606544      69.07565289        2
Au      32.12386107       1.68606544      69.07565289        2
Au      35.04421208       1.68606544      69.07565289        2
Au      37.96456308       1.68606544      69.07565289        2
Au      40.88491409       1.68606544      69.07565289        2
Au      43.80526509       1.68606544      69.07565289        2
Au      46.72561610       1.68606544      69.07565289        2
Au      49.64596711       1.68606544      69.07565289        2
Au      52.56631811       1.68606544      69.07565289        2
Au      55.48666912       1.68606544      69.07565289        2
Au      58.40702013       1.68606544      69.07565289        2
Au      61.32737113       1.68606544      69.07565289        2
Au      64.24772214       1.68606544      69.07565289        2
Au      67.16807314       1.68606544      69.07565289        2
Au      70.08842415       1.68606544      69.07565289        2
Au      73.00877516       1.68606544      69.07565289        2
Au      75.92912616       1.68606544      69.07565289        2
Au      78.84947717       1.68606544      69.07565289        2
Au      81.76982818       1.68606544      69.07565289        2
Au      84.69017918       1.68606544      69.07565289        2
Au      87.61053019       1.68606544      69.07565289        2
Au      90.53088120       1.68606544      69.07565289        2
Au      93.45123220       1.68606544      69.07565289        2
Au      96.37158321       1.68606544      69.07565289        2
Au      99.29193421       1.68606544      69.07565289        2
Au       1.46017550       4.21516360      69.07565289        2
Au       4.38052651       4.21516360      69.07565289        2
Au       7.30087752       4.21516360      69.07565289        2
Au      10.22122852       4.21516360      69.07565289        2
Au      13.14157953       4.21516360      69.07565289        2
Au      16.06193053       4.21516360      69.07565289        2
Au      18.98228154       4.21516360      69.07565289        2
Au      21.90263255       4.21516360      69.07565289        2
Au      24.82298355       4.21516360      69.07565289        2
Au      27.74333456       4.21516360      69.07565289        2
Au      30.66368557       4.21516360      69.07565289        2
Au      33.58403657       4.21516360      69.07565289        2
Au      36.50438758       4.21516360      69.07565289        2
Au      39.42473859       4.21516360      69.07565289        2
Au      42.34508959       4.21516360      69.07565289        2
Au      45.26544060       4.21516360      69.07565289        2
Au      48.18579160       4.21516360      69.07565289        2
Au      51.10614261       4.21516360      69.07565289        2
Au      54.02649362       4.21516360      69.07565289        2
Au      56.94684462       4.21516360      69.07565289        2
Au      59.86719563       4.21516360      69.07565289        2
Au      62.78754664       4.21516360      69.07565289        2
Au      65.70789764       4.21516360      69.07565289        2
Au      68.62824865       4.21516360      69.07565289        2
Au      71.54859965       4.21516360      69.07565289        2
Au      74.46895066       4.21516360      69.07565289        2
Au      77.38930167       4.21516360      69.07565289        2
Au      80.30965267       4.21516360      69.07565289        2
Au      83.23000368       4.21516360      69.07565289        2
Au      86.15035469       4.21516360      69.07565289        2
Au      89.07070569       4.21516360      69.07565289        2
Au      91.99105670       4.21516360      69.07565289        2
Au      94.91140770       4.21516360      69.07565289        2
Au      97.83175871       4.21516360      69.07565289        2
Au     100.75210972       4.21516360      69.07565289        2
Au       0.00000000       6.74426176      69.07565289        2
Au       2.92035101       6.74426176      69.07565289        2
Au       5.84070201       6.74426176      69.07565289        2
Au       8.76105302       6.74426176      69.07565289        2
Au      11.68140403       6.74426176      69.07565289        2
Au      14.60175503       6.74426176      69.07565289        2
Au      17.52210604       6.74426176      69.07565289        2
Au      20.44245704       6.74426176      69.07565289        2
Au      23.36280805       6.74426176      69.07565289        2
Au      26.28315906       6.74426176      69.07565289        2
Au      29.20351006       6.74426176      69.07565289        2
Au      32.12386107       6.74426176      69.07565289        2
Au      35.04421208       6.74426176      69.07565289        2
Au      37.96456308       6.74426176      69.07565289        2
Au      40.88491409       6.74426176      69.07565289        2
Au      43.80526509       6.74426176      69.07565289        2
Au      46.72561610       6.74426176      69.07565289        2
Au      49.64596711       6.74426176      69.07565289        2
Au      52.56631811       6.74426176      69.07565289        2
Au      55.48666912       6.74426176      69.07565289        2
Au      58.40702013       6.74426176      69.07565289        2
Au      61.32737113       6.74426176      69.07565289        2
Au      64.24772214       6.74426176      69.07565289        2
Au      67.16807314       6.74426176      69.07565289        2
Au      70.08842415       6.74426176      69.07565289        2
Au      73.00877516       6.74426176      69.07565289        2
Au      75.92912616       6.74426176      69.07565289        2
Au      78.84947717       6.74426176      69.07565289        2
Au      81.76982818       6.74426176      69.07565289        2
Au      84.69017918       6.74426176      69.07565289        2
Au      87.61053019       6.74426176      69.07565289        2
Au      90.53088120       6.74426176      69.07565289        2
Au      93.45123220       6.74426176      69.07565289        2
Au      96.37158321       6.74426176      69.07565289        2
Au      99.29193421       6.74426176      69.07565289        2
Au       1.46017550       9.27335992      69.07565289        2
Au       4.38052651       9.27335992      69.07565289        2
Au       7.30087752       9.27335992      69.07565289        2
Au      10.22122852       9.27335992      69.07565289        2
Au      13.14157953       9.27335992      69.07565289        2
Au      16.06193053       9.27335992      69.07565289        2
Au      18.98228154       9.27335992      69.07565289        2
Au      21.90263255       9.27335992      69.07565289        2
Au      24.82298355       9.27335992      69.07565289        2
Au      27.74333456       9.27335992      69.07565289        2
Au      30.66368557       9.27335992      69.07565289        2
Au      33.58403657       9.27335992      69.07565289        2
Au      36.50438758       9.27335992      69.07565289        2
Au      39.42473859       9.27335992      69.07565289        2
Au      42.34508959       9.27335992      69.07565289        2
Au      45.26544060       9.27335992      69.07565289        2
Au      48.18579160       9.27335992      69.07565289        2
Au      51.10614261       9.27335992      69.07565289        2
Au      54.02649362       9.27335992      69.07565289        2
Au      56.94684462       9.27335992      69.07565289        2
Au      59.86719563       9.27335992      69.07565289        2
Au      62.78754664       9.27335992      69.07565289        2
Au      65.70789764       9.27335992      69.07565289        2
Au      68.62824865       9.27335992      69.07565289        2
Au      71.54859965       9.27335992      69.07565289        2
Au      74.46895066       9.27335992      69.07565289        2
Au      77.38930167       9.27335992      69.07565289        2
Au      80.30965267       9.27335992      69.07565289        2
Au      83.23000368       9.27335992      69.07565289        2
Au      86.15035469       9.27335992      69.07565289        2
Au      89.07070569       9.27335992      69.07565289        2
Au      91.99105670       9.27335992      69.07565289        2
Au      94.91140770       9.27335992      69.07565289        2
Au      97.83175871       9.27335992      69.07565289        2
Au     100.75210972       9.27335992      69.07565289        2
Au       0.00000000      11.80245808      69.07565289        2
Au       2.92035101      11.80245808      69.07565289        2
Au       5.84070201      11.80245808      69.07565289        2
Au       8.76105302      11.80245808      69.07565289        2
Au      11.68140403      11.80245808      69.07565289        2
Au      14.60175503      11.80245808      69.07565289        2
Au      17.52210604      11.80245808      69.07565289        2
Au      20.44245704      11.80245808      69.07565289        2
Au      23.36280805      11.80245808      69.07565289        2
Au      26.28315906      11.80245808      69.07565289        2
Au      29.20351006      11.80245808      69.07565289        2
Au      32.12386107      11.80245808      69.07565289        2
Au      35.04421208      11.80245808      69.07565289        2
Au      37.96456308      11.80245808      69.07565289        2
Au      40.88491409      11.80245808      69.07565289        2
Au      43.80526509      11.80245808      69.07565289        2
Au      46.72561610      11.80245808      69.07565289        2
Au      49.64596711      11.80245808      69.07565289        2
Au      52.56631811      11.80245808      69.07565289        2
Au      55.48666912      11.80245808      69.07565289        2
Au      58.40702013      11.80245808      69.07565289        2
Au      61.32737113      11.80245808      69.07565289        2
Au      64.24772214      11.80245808      69.07565289        2
Au      67.16807314      11.80245808      69.07565289        2
Au      70.08842415      11.80245808      69.07565289        2
Au      73.00877516      11.80245808      69.07565289        2
Au      75.92912616      11.80245808      69.07565289        2
Au      78.84947717      11.80245808      69.07565289        2
Au      81.76982818      11.80245808      69.07565289        2
Au      84.69017918      11.80245808      69.07565289        2
Au      87.61053019      11.80245808      69.07565289        2
Au      90.53088120      11.80245808      69.07565289        2
Au      93.45123220      11.80245808      69.07565289        2
Au      96.37158321      11.80245808      69.07565289        2
Au      99.29193421      11.80245808      69.07565289        2
Au       1.46017550      14.33155624      69.07565289        2
Au       4.38052651      14.33155624      69.07565289        2
Au       7.30087752      14.33155624      69.07565289        2
Au      10.22122852      14.33155624      69.07565289        2
Au      13.14157953      14.33155624      69.07565289        2
Au      16.06193053      14.33155624      69.07565289        2
Au      18.98228154      14.33155624      69.07565289        2
Au      21.90263255      14.33155624      69.07565289        2
Au      24.82298355      14.33155624      69.07565289        2
Au      27.74333456      14.33155624      69.07565289        2
Au      30.66368557      14.33155624      69.07565289        2
Au      33.58403657      14.33155624      69.07565289        2
Au      36.50438758      14.33155624      69.07565289        2
Au      39.42473859      14.33155624      69.07565289        2
Au      42.34508959      14.33155624      69.07565289        2
Au      45.26544060      14.33155624      69.07565289        2
Au      48.18579160      14.33155624      69.07565289        2
Au      51.10614261      14.33155624      69.07565289        2
Au      54.02649362      14.33155624      69.07565289        2
Au      56.94684462      14.33155624      69.07565289        2
Au      59.86719563      14.33155624      69.07565289        2
Au      62.78754664      14.33155624      69.07565289        2
Au      65.70789764      14.33155624      69.07565289        2
Au      68.62824865      14.33155624      69.07565289        2
Au      71.54859965      14.33155624      69.07565289        2
Au      74.46895066      14.33155624      69.07565289        2
Au      77.38930167      14.33155624      69.07565289        2
Au      80.30965267      14.33155624      69.07565289        2
Au      83.23000368      14.33155624      69.07565289        2
Au      86.15035469      14.33155624      69.07565289        2
Au      89.07070569      14.33155624      69.07565289        2
Au      91.99105670      14.33155624      69.07565289        2
Au      94.91140770      14.33155624      69.07565289        2
Au      97.83175871      14.33155624      69.07565289        2
Au     100.75210972      14.33155624      69.07565289        2
Au       0.00000000      16.86065440      69.07565289        2
Au       2.92035101      16.86065440      69.07565289        2
Au       5.84070201      16.86065440      69.07565289        2
Au       8.76105302      16.86065440      69.07565289        2
Au      11.68140403      16.86065440      69.07565289        2
Au      14.60175503      16.86065440      69.07565289        2
Au      17.52210604      16.86065440      69.07565289        2
Au      20.44245704      16.86065440      69.07565289        2
Au      23.36280805      16.86065440      69.07565289        2
Au      26.28315906      16.86065440      69.07565289        2
Au      29.20351006      16.86065440      69.07565289        2
Au      32.12386107      16.86065440      69.07565289        2
Au      35.04421208      16.86065440      69.07565289        2
Au      37.96456308      16.86065440      69.07565289        2
Au      40.88491409      16.86065440      69.07565289        2
Au      43.80526509      16.86065440      69.07565289        2
Au      46.72561610      16.86065440      69.07565289        2
Au      49.64596711      16.86065440      69.07565289        2
Au      52.56631811      16.86065440      69.07565289        2
Au      55.48666912      16.86065440      69.07565289        2
Au      58.40702013      16.86065440      69.07565289        2
Au      61.32737113      16.86065440      69.07565289        2
Au      64.24772214      16.86065440      69.07565289        2
Au      67.16807314      16.86065440      69.07565289        2
Au      70.08842415      16.86065440      69.07565289        2
Au      73.00877516      16.86065440      69.07565289        2
Au      75.92912616      16.86065440      69.07565289        2
Au      78.84947717      16.86065440      69.07565289        2
Au      81.76982818      16.86065440      69.07565289        2
Au      84.69017918      16.86065440      69.07565289        2
Au      87.61053019      16.86065440      69.07565289        2
Au      90.53088120      16.86065440      69.07565289        2
Au      93.45123220      16.86065440      69.07565289        2
Au      96.37158321      16.86065440      69.07565289        2
Au      99.29193421      16.86065440      69.07565289        2
Au       1.46017550      19.38975256      69.07565289        2
Au       4.38052651      19.38975256      69.07565289        2
Au       7.30087752      19.38975256      69.07565289        2
Au      10.22122852      19.38975256      69.07565289        2
Au      13.14157953      19.38975256      69.07565289        2
Au      16.06193053      19.38975256      69.07565289        2
Au      18.98228154      19.38975256      69.07565289        2
Au      21.90263255      19.38975256      69.07565289        2
Au      24.82298355      19.38975256      69.07565289        2
Au      27.74333456      19.38975256      69.07565289        2
Au      30.66368557      19.38975256      69.07565289        2
Au      33.58403657      19.38975256      69.07565289        2
Au      36.50438758      19.38975256      69.07565289        2
Au      39.42473859      19.38975256      69.07565289        2
Au      42.34508959      19.38975256      69.07565289        2
Au      45.26544060      19.38975256      69.07565289        2
Au      48.18579160      19.38975256      69.07565289        2
Au      51.10614261      19.38975256      69.07565289        2
Au      54.02649362      19.38975256      69.07565289        2
Au      56.94684462      19.38975256      69.07565289        2
Au      59.86719563      19.38975256      69.07565289        2
Au      62.78754664      19.38975256      69.07565289        2
Au      65.70789764      19.38975256      69.07565289        2
Au      68.62824865      19.38975256      69.07565289        2
Au      71.54859965      19.38975256      69.07565289        2
Au      74.46895066      19.38975256      69.07565289        2
Au      77.38930167      19.38975256      69.07565289        2
Au      80.30965267      19.38975256      69.07565289        2
Au      83.23000368      19.38975256      69.07565289        2
Au      86.15035469      19.38975256      69.07565289        2
Au      89.07070569      19.38975256      69.07565289        2
Au      91.99105670      19.38975256      69.07565289        2
Au      94.91140770      19.38975256      69.07565289        2
Au      97.83175871      19.38975256      69.07565289        2
Au     100.75210972      19.38975256      69.07565289        2
Au       0.00000000      21.91885072      69.07565289        2
Au       2.92035101      21.91885072      69.07565289        2
Au       5.84070201      21.91885072      69.07565289        2
Au       8.76105302      21.91885072      69.07565289        2
Au      11.68140403      21.91885072      69.07565289        2
Au      14.60175503      21.91885072      69.07565289        2
Au      17.52210604      21.91885072      69.07565289        2
Au      20.44245704      21.91885072      69.07565289        2
Au      23.36280805      21.91885072      69.07565289        2
Au      26.28315906      21.91885072      69.07565289        2
Au      29.20351006      21.91885072      69.07565289        2
Au      32.12386107      21.91885072      69.07565289        2
Au      35.04421208      21.91885072      69.07565289        2
Au      37.96456308      21.91885072      69.07565289        2
Au      40.88491409      21.91885072      69.07565289        2
Au      43.80526509      21.91885072      69.07565289        2
Au      46.72561610      21.91885072      69.07565289        2
Au      49.64596711      21.91885072      69.07565289        2
Au      52.56631811      21.91885072      69.07565289        2
Au      55.48666912      21.91885072      69.07565289        2
Au      58.40702013      21.91885072      69.07565289        2
Au      61.32737113      21.91885072      69.07565289        2
Au      64.24772214      21.91885072      69.07565289        2
Au      67.16807314      21.91885072      69.07565289        2
Au      70.08842415      21.91885072      69.07565289        2
Au      73.00877516      21.91885072      69.07565289        2
Au      75.92912616      21.91885072      69.07565289        2
Au      78.84947717      21.91885072      69.07565289        2
Au      81.76982818      21.91885072      69.07565289        2
Au      84.69017918      21.91885072      69.07565289        2
Au      87.61053019      21.91885072      69.07565289        2
Au      90.53088120      21.91885072      69.07565289        2
Au      93.45123220      21.91885072      69.07565289        2
Au      96.37158321      21.91885072      69.07565289        2
Au      99.29193421      21.91885072      69.07565289        2
Au       1.46017550      24.44794887      69.07565289        2
Au       4.38052651      24.44794887      69.07565289        2
Au       7.30087752      24.44794887      69.07565289        2
Au      10.22122852      24.44794887      69.07565289        2
Au      13.14157953      24.44794887      69.07565289        2
Au      16.06193053      24.44794887      69.07565289        2
Au      18.98228154      24.44794887      69.07565289        2
Au      21.90263255      24.44794887      69.07565289        2
Au      24.82298355      24.44794887      69.07565289        2
Au      27.74333456      24.44794887      69.07565289        2
Au      30.66368557      24.44794887      69.07565289        2
Au      33.58403657      24.44794887      69.07565289        2
Au      36.50438758      24.44794887      69.07565289        2
Au      39.42473859      24.44794887      69.07565289        2
Au      42.34508959      24.44794887      69.07565289        2
Au      45.26544060      24.44794887      69.07565289        2
Au      48.18579160      24.44794887      69.07565289        2
Au      51.10614261      24.44794887      69.07565289        2
Au      54.02649362      24.44794887      69.07565289        2
Au      56.94684462      24.44794887      69.07565289        2
Au      59.86719563      24.44794887      69.07565289        2
Au      62.78754664      24.44794887      69.07565289        2
Au      65.70789764      24.44794887      69.07565289        2
Au      68.62824865      24.44794887      69.07565289        2
Au      71.54859965      24.44794887      69.07565289        2
Au      74.46895066      24.44794887      69.07565289        2
Au      77.38930167      24.44794887      69.07565289        2
Au      80.30965267      24.44794887      69.07565289        2
Au      83.23000368      24.44794887      69.07565289        2
Au      86.15035469      24.44794887      69.07565289        2
Au      89.07070569      24.44794887      69.07565289        2
Au      91.99105670      24.44794887      69.07565289        2
Au      94.91140770      24.44794887      69.07565289        2
Au      97.83175871      24.44794887      69.07565289        2
Au     100.75210972      24.44794887      69.07565289        2
Au       0.00000000      26.97704703      69.07565289        2
Au       2.92035101      26.97704703      69.07565289        2
Au       5.84070201      26.97704703      69.07565289        2
Au       8.76105302      26.97704703      69.07565289        2
Au      11.68140403      26.97704703      69.07565289        2
Au      14.60175503      26.97704703      69.07565289        2
Au      17.52210604      26.97704703      69.07565289        2
Au      20.44245704      26.97704703      69.07565289        2
Au      23.36280805      26.97704703      69.07565289        2
Au      26.28315906      26.97704703      69.07565289        2
Au      29.20351006      26.97704703      69.07565289        2
Au      32.12386107      26.97704703      69.07565289        2
Au      35.04421208      26.97704703      69.07565289        2
Au      37.96456308      26.97704703      69.07565289        2
Au      40.88491409      26.97704703      69.07565289        2
Au      43.80526509      26.97704703      69.07565289        2
Au      46.72561610      26.97704703      69.07565289        2
Au      49.64596711      26.97704703      69.07565289        2
Au      52.56631811      26.97704703      69.07565289        2
Au      55.48666912      26.97704703      69.07565289        2
Au      58.40702013      26.97704703      69.07565289        2
Au      61.32737113      26.97704703      69.07565289        2
Au      64.24772214      26.97704703      69.07565289        2
Au      67.16807314      26.97704703      69.07565289        2
Au      70.08842415      26.97704703      69.07565289        2
Au      73.00877516      26.97704703      69.07565289        2
Au      75.92912616      26.97704703      69.07565289        2
Au      78.84947717      26.97704703      69.07565289        2
Au      81.76982818      26.97704703      69.07565289        2
Au      84.69017918      26.97704703      69.07565289        2
Au      87.61053019      26.97704703      69.07565289        2
Au      90.53088120      26.97704703      69.07565289        2
Au      93.45123220      26.97704703      69.07565289        2
Au      96.37158321      26.97704703      69.07565289        2
Au      99.29193421      26.97704703      69.07565289        2
Au       1.46017550      29.50614519      69.07565289        2
Au       4.38052651      29.50614519      69.07565289        2
Au       7.30087752      29.50614519      69.07565289        2
Au      10.22122852      29.50614519      69.07565289        2
Au      13.14157953      29.50614519      69.07565289        2
Au      16.06193053      29.50614519      69.07565289        2
Au      18.98228154      29.50614519      69.07565289        2
Au      21.90263255      29.50614519      69.07565289        2
Au      24.82298355      29.50614519      69.07565289        2
Au      27.74333456      29.50614519      69.07565289        2
Au      30.66368557      29.50614519      69.07565289        2
Au      33.58403657      29.50614519      69.07565289        2
Au      36.50438758      29.50614519      69.07565289        2
Au      39.42473859      29.50614519      69.07565289        2
Au      42.34508959      29.50614519      69.07565289        2
Au      45.26544060      29.50614519      69.07565289        2
Au      48.18579160      29.50614519      69.07565289        2
Au      51.10614261      29.50614519      69.07565289        2
Au      54.02649362      29.50614519      69.07565289        2
Au      56.94684462      29.50614519      69.07565289        2
Au      59.86719563      29.50614519      69.07565289        2
Au      62.78754664      29.50614519      69.07565289        2
Au      65.70789764      29.50614519      69.07565289        2
Au      68.62824865      29.50614519      69.07565289        2
Au      71.54859965      29.50614519      69.07565289        2
Au      74.46895066      29.50614519      69.07565289        2
Au      77.38930167      29.50614519      69.07565289        2
Au      80.30965267      29.50614519      69.07565289        2
Au      83.23000368      29.50614519      69.07565289        2
Au      86.15035469      29.50614519      69.07565289        2
Au      89.07070569      29.50614519      69.07565289        2
Au      91.99105670      29.50614519      69.07565289        2
Au      94.91140770      29.50614519      69.07565289        2
Au      97.83175871      29.50614519      69.07565289        2
Au     100.75210972      29.50614519      69.07565289        2
Au       0.00000000      32.03524335      69.07565289        2
Au       2.92035101      32.03524335      69.07565289        2
Au       5.84070201      32.03524335      69.07565289        2
Au       8.76105302      32.03524335      69.07565289        2
Au      11.68140403      32.03524335      69.07565289        2
Au      14.60175503      32.03524335      69.07565289        2
Au      17.52210604      32.03524335      69.07565289        2
Au      20.44245704      32.03524335      69.07565289        2
Au      23.36280805      32.03524335      69.07565289        2
Au      26.28315906      32.03524335      69.07565289        2
Au      29.20351006      32.03524335      69.07565289        2
Au      32.12386107      32.03524335      69.07565289        2
Au      35.04421208      32.03524335      69.07565289        2
Au      37.96456308      32.03524335      69.07565289        2
Au      40.88491409      32.03524335      69.07565289        2
Au      43.80526509      32.03524335      69.07565289        2
Au      46.72561610      32.03524335      69.07565289        2
Au      49.64596711      32.03524335      69.07565289        2
Au      52.56631811      32.03524335      69.07565289        2
Au      55.48666912      32.03524335      69.07565289        2
Au      58.40702013      32.03524335      69.07565289        2
Au      61.32737113      32.03524335      69.07565289        2
Au      64.24772214      32.03524335      69.07565289        2
Au      67.16807314      32.03524335      69.07565289        2
Au      70.08842415      32.03524335      69.07565289        2
Au      73.00877516      32.03524335      69.07565289        2
Au      75.92912616      32.03524335      69.07565289        2
Au      78.84947717      32.03524335      69.07565289        2
Au      81.76982818      32.03524335      69.07565289        2
Au      84.69017918      32.03524335      69.07565289        2
Au      87.61053019      32.03524335      69.07565289        2
Au      90.53088120      32.03524335      69.07565289        2
Au      93.45123220      32.03524335      69.07565289        2
Au      96.37158321      32.03524335      69.07565289        2
Au      99.29193421      32.03524335      69.07565289        2
Au       1.46017550      34.56434151      69.07565289        2
Au       4.38052651      34.56434151      69.07565289        2
Au       7.30087752      34.56434151      69.07565289        2
Au      10.22122852      34.56434151      69.07565289        2
Au      13.14157953      34.56434151      69.07565289        2
Au      16.06193053      34.56434151      69.07565289        2
Au      18.98228154      34.56434151      69.07565289        2
Au      21.90263255      34.56434151      69.07565289        2
Au      24.82298355      34.56434151      69.07565289        2
Au      27.74333456      34.56434151      69.07565289        2
Au      30.66368557      34.56434151      69.07565289        2
Au      33.58403657      34.56434151      69.07565289        2
Au      36.50438758      34.56434151      69.07565289        2
Au      39.42473859      34.56434151      69.07565289        2
Au      42.34508959      34.56434151      69.07565289        2
Au      45.26544060      34.56434151      69.07565289        2
Au      48.18579160      34.56434151      69.07565289        2
Au      51.10614261      34.56434151      69.07565289        2
Au      54.02649362      34.56434151      69.07565289        2
Au      56.94684462      34.56434151      69.07565289        2
Au      59.86719563      34.56434151      69.07565289        2
Au      62.78754664      34.56434151      69.07565289        2
Au      65.70789764      34.56434151      69.07565289        2
Au      68.62824865      34.56434151      69.07565289        2
Au      71.54859965      34.56434151      69.07565289        2
Au      74.46895066      34.56434151      69.07565289        2
Au      77.38930167      34.56434151      69.07565289        2
Au      80.30965267      34.56434151      69.07565289        2
Au      83.23000368      34.56434151      69.07565289        2
Au      86.15035469      34.56434151      69.07565289        2
Au      89.07070569      34.56434151      69.07565289        2
Au      91.99105670      34.56434151      69.07565289        2
Au      94.91140770      34.56434151      69.07565289        2
Au      97.83175871      34.56434151      69.07565289        2
Au     100.75210972      34.56434151      69.07565289        2
Au       0.00000000      37.09343967      69.07565289        2
Au       2.92035101      37.09343967      69.07565289        2
Au       5.84070201      37.09343967      69.07565289        2
Au       8.76105302      37.09343967      69.07565289        2
Au      11.68140403      37.09343967      69.07565289        2
Au      14.60175503      37.09343967      69.07565289        2
Au      17.52210604      37.09343967      69.07565289        2
Au      20.44245704      37.09343967      69.07565289        2
Au      23.36280805      37.09343967      69.07565289        2
Au      26.28315906      37.09343967      69.07565289        2
Au      29.20351006      37.09343967      69.07565289        2
Au      32.12386107      37.09343967      69.07565289        2
Au      35.04421208      37.09343967      69.07565289        2
Au      37.96456308      37.09343967      69.07565289        2
Au      40.88491409      37.09343967      69.07565289        2
Au      43.80526509      37.09343967      69.07565289        2
Au      46.72561610      37.09343967      69.07565289        2
Au      49.64596711      37.09343967      69.07565289        2
Au      52.56631811      37.09343967      69.07565289        2
Au      55.48666912      37.09343967      69.07565289        2
Au      58.40702013      37.09343967      69.07565289        2
Au      61.32737113      37.09343967      69.07565289        2
Au      64.24772214      37.09343967      69.07565289        2
Au      67.16807314      37.09343967      69.07565289        2
Au      70.08842415      37.09343967      69.07565289        2
Au      73.00877516      37.09343967      69.07565289        2
Au      75.92912616      37.09343967      69.07565289        2
Au      78.84947717      37.09343967      69.07565289        2
Au      81.76982818      37.09343967      69.07565289        2
Au      84.69017918      37.09343967      69.07565289        2
Au      87.61053019      37.09343967      69.07565289        2
Au      90.53088120      37.09343967      69.07565289        2
Au      93.45123220      37.09343967      69.07565289        2
Au      96.37158321      37.09343967      69.07565289        2
Au      99.29193421      37.09343967      69.07565289        2
Au       1.46017550      39.62253783      69.07565289        2
Au       4.38052651      39.62253783      69.07565289        2
Au       7.30087752      39.62253783      69.07565289        2
Au      10.22122852      39.62253783      69.07565289        2
Au      13.14157953      39.62253783      69.07565289        2
Au      16.06193053      39.62253783      69.07565289        2
Au      18.98228154      39.62253783      69.07565289        2
Au      21.90263255      39.62253783      69.07565289        2
Au      24.82298355      39.62253783      69.07565289        2
Au      27.74333456      39.62253783      69.07565289        2
Au      30.66368557      39.62253783      69.07565289        2
Au      33.58403657      39.62253783      69.07565289        2
Au      36.50438758      39.62253783      69.07565289        2
Au      39.42473859      39.62253783      69.07565289        2
Au      42.34508959      39.62253783      69.07565289        2
Au      45.26544060      39.62253783      69.07565289        2
Au      48.18579160      39.62253783      69.07565289        2
Au      51.10614261      39.62253783      69.07565289        2
Au      54.02649362      39.62253783      69.07565289        2
Au      56.94684462      39.62253783      69.07565289        2
Au      59.86719563      39.62253783      69.07565289        2
Au      62.78754664      39.62253783      69.07565289        2
Au      65.70789764      39.62253783      69.07565289        2
Au      68.62824865      39.62253783      69.07565289        2
Au      71.54859965      39.62253783      69.07565289        2
Au      74.46895066      39.62253783      69.07565289        2
Au      77.38930167      39.62253783      69.07565289        2
Au      80.30965267      39.62253783      69.07565289        2
Au      83.23000368      39.62253783      69.07565289        2
Au      86.15035469      39.62253783      69.07565289        2
Au      89.07070569      39.62253783      69.07565289        2
Au      91.99105670      39.62253783      69.07565289        2
Au      94.91140770      39.62253783      69.07565289        2
Au      97.83175871      39.62253783      69.07565289        2
Au     100.75210972      39.62253783      69.07565289        2
Au       0.00000000      42.15163599      69.07565289        2
Au       2.92035101      42.15163599      69.07565289        2
Au       5.84070201      42.15163599      69.07565289        2
Au       8.76105302      42.15163599      69.07565289        2
Au      11.68140403      42.15163599      69.07565289        2
Au      14.60175503      42.15163599      69.07565289        2
Au      17.52210604      42.15163599      69.07565289        2
Au      20.44245704      42.15163599      69.07565289        2
Au      23.36280805      42.15163599      69.07565289        2
Au      26.28315906      42.15163599      69.07565289        2
Au      29.20351006      42.15163599      69.07565289        2
Au      32.12386107      42.15163599      69.07565289        2
Au      35.04421208      42.15163599      69.07565289        2
Au      37.96456308      42.15163599      69.07565289        2
Au      40.88491409      42.15163599      69.07565289        2
Au      43.80526509      42.15163599      69.07565289        2
Au      46.72561610      42.15163599      69.07565289        2
Au      49.64596711      42.15163599      69.07565289        2
Au      52.56631811      42.15163599      69.07565289        2
Au      55.48666912      42.15163599      69.07565289        2
Au      58.40702013      42.15163599      69.07565289        2
Au      61.32737113      42.15163599      69.07565289        2
Au      64.24772214      42.15163599      69.07565289        2
Au      67.16807314      42.15163599      69.07565289        2
Au      70.08842415      42.15163599      69.07565289        2
Au      73.00877516      42.15163599      69.07565289        2
Au      75.92912616      42.15163599      69.07565289        2
Au      78.84947717      42.15163599      69.07565289        2
Au      81.76982818      42.15163599      69.07565289        2
Au      84.69017918      42.15163599      69.07565289        2
Au      87.61053019      42.15163599      69.07565289        2
Au      90.53088120      42.15163599      69.07565289        2
Au      93.45123220      42.15163599      69.07565289        2
Au      96.37158321      42.15163599      69.07565289        2
Au      99.29193421      42.15163599      69.07565289        2
Au       1.46017550      44.68073415      69.07565289        2
Au       4.38052651      44.68073415      69.07565289        2
Au       7.30087752      44.68073415      69.07565289        2
Au      10.22122852      44.68073415      69.07565289        2
Au      13.14157953      44.68073415      69.07565289        2
Au      16.06193053      44.68073415      69.07565289        2
Au      18.98228154      44.68073415      69.07565289        2
Au      21.90263255      44.68073415      69.07565289        2
Au      24.82298355      44.68073415      69.07565289        2
Au      27.74333456      44.68073415      69.07565289        2
Au      30.66368557      44.68073415      69.07565289        2
Au      33.58403657      44.68073415      69.07565289        2
Au      36.50438758      44.68073415      69.07565289        2
Au      39.42473859      44.68073415      69.07565289        2
Au      42.34508959      44.68073415      69.07565289        2
Au      45.26544060      44.68073415      69.07565289        2
Au      48.18579160      44.68073415      69.07565289        2
Au      51.10614261      44.68073415      69.07565289        2
Au      54.02649362      44.68073415      69.07565289        2
Au      56.94684462      44.68073415      69.07565289        2
Au      59.86719563      44.68073415      69.07565289        2
Au      62.78754664      44.68073415      69.07565289        2
Au      65.70789764      44.68073415      69.07565289        2
Au      68.62824865      44.68073415      69.07565289        2
Au      71.54859965      44.68073415      69.07565289        2
Au      74.46895066      44.68073415      69.07565289        2
Au      77.38930167      44.68073415      69.07565289        2
Au      80.30965267      44.68073415      69.07565289        2
Au      83.23000368      44.68073415      69.07565289        2
Au      86.15035469      44.68073415      69.07565289        2
Au      89.07070569      44.68073415      69.07565289        2
Au      91.99105670      44.68073415      69.07565289        2
Au      94.91140770      44.68073415      69.07565289        2
Au      97.83175871      44.68073415      69.07565289        2
Au     100.75210972      44.68073415      69.07565289        2
Au       0.00000000      47.20983231      69.07565289        2
Au       2.92035101      47.20983231      69.07565289        2
Au       5.84070201      47.20983231      69.07565289        2
Au       8.76105302      47.20983231      69.07565289        2
Au      11.68140403      47.20983231      69.07565289        2
Au      14.60175503      47.20983231      69.07565289        2
Au      17.52210604      47.20983231      69.07565289        2
Au      20.44245704      47.20983231      69.07565289        2
Au      23.36280805      47.20983231      69.07565289        2
Au      26.28315906      47.20983231      69.07565289        2
Au      29.20351006      47.20983231      69.07565289        2
Au      32.12386107      47.20983231      69.07565289        2
Au      35.04421208      47.20983231      69.07565289        2
Au      37.96456308      47.20983231      69.07565289        2
Au      40.88491409      47.20983231      69.07565289        2
Au      43.80526509      47.20983231      69.07565289        2
Au      46.72561610      47.20983231      69.07565289        2
Au      49.64596711      47.20983231      69.07565289        2
Au      52.56631811      47.20983231      69.07565289        2
Au      55.48666912      47.20983231      69.07565289        2
Au      58.40702013      47.20983231      69.07565289        2
Au      61.32737113      47.20983231      69.07565289        2
Au      64.24772214      47.20983231      69.07565289        2
Au      67.16807314      47.20983231      69.07565289        2
Au      70.08842415      47.20983231      69.07565289        2
Au      73.00877516      47.20983231      69.07565289        2
Au      75.92912616      47.20983231      69.07565289        2
Au      78.84947717      47.20983231      69.07565289        2
Au      81.76982818      47.20983231      69.07565289        2
Au      84.69017918      47.20983231      69.07565289        2
Au      87.61053019      47.20983231      69.07565289        2
Au      90.53088120      47.20983231      69.07565289        2
Au      93.45123220      47.20983231      69.07565289        2
Au      96.37158321      47.20983231      69.07565289        2
Au      99.29193421      47.20983231      69.07565289        2
Au       1.46017550      49.73893047      69.07565289        2
Au       4.38052651      49.73893047      69.07565289        2
Au       7.30087752      49.73893047      69.07565289        2
Au      10.22122852      49.73893047      69.07565289        2
Au      13.14157953      49.73893047      69.07565289        2
Au      16.06193053      49.73893047      69.07565289        2
Au      18.98228154      49.73893047      69.07565289        2
Au      21.90263255      49.73893047      69.07565289        2
Au      24.82298355      49.73893047      69.07565289        2
Au      27.74333456      49.73893047      69.07565289        2
Au      30.66368557      49.73893047      69.07565289        2
Au      33.58403657      49.73893047      69.07565289        2
Au      36.50438758      49.73893047      69.07565289        2
Au      39.42473859      49.73893047      69.07565289        2
Au      42.34508959      49.73893047      69.07565289        2
Au      45.26544060      49.73893047      69.07565289        2
Au      48.18579160      49.73893047      69.07565289        2
Au      51.10614261      49.73893047      69.07565289        2
Au      54.02649362      49.73893047      69.07565289        2
Au      56.94684462      49.73893047      69.07565289        2
Au      59.86719563      49.73893047      69.07565289        2
Au      62.78754664      49.73893047      69.07565289        2
Au      65.70789764      49.73893047      69.07565289        2
Au      68.62824865      49.73893047      69.07565289        2
Au      71.54859965      49.73893047      69.07565289        2
Au      74.46895066      49.73893047      69.07565289        2
Au      77.38930167      49.73893047      69.07565289        2
Au      80.30965267      49.73893047      69.07565289        2
Au      83.23000368      49.73893047      69.07565289        2
Au      86.15035469      49.73893047      69.07565289        2
Au      89.07070569      49.73893047      69.07565289        2
Au      91.99105670      49.73893047      69.07565289        2
Au      94.91140770      49.73893047      69.07565289        2
Au      97.83175871      49.73893047      69.07565289        2
Au     100.75210972      49.73893047      69.07565289        2
Au       0.00000000       0.00000000      71.46010951        1
Au       2.92035101       0.00000000      71.46010951        1
Au       5.84070201       0.00000000      71.46010951        1
Au       8.76105302       0.00000000      71.46010951        1
Au      11.68140403       0.00000000      71.46010951        1
Au      14.60175503       0.00000000      71.46010951        1
Au      17.52210604       0.00000000      71.46010951        1
Au      20.44245704       0.00000000      71.46010951        1
Au      23.36280805       0.00000000      71.46010951        1
Au      26.28315906       0.00000000      71.46010951        1
Au      29.20351006       0.00000000      71.46010951        1
Au      32.12386107       0.00000000      71.46010951        1
Au      35.04421208       0.00000000      71.46010951        1
Au      37.96456308       0.00000000      71.46010951        1
Au      40.88491409       0.00000000      71.46010951        1
Au      43.80526509       0.00000000      71.46010951        1
Au      46.72561610       0.00000000      71.46010951        1
Au      49.64596711       0.00000000      71.46010951        1
Au      52.56631811       0.00000000      71.46010951        1
Au      55.48666912       0.00000000      71.46010951        1
Au      58.40702013       0.00000000      71.46010951        1
Au      61.32737113       0.00000000      71.46010951        1
Au      64.24772214       0.00000000      71.46010951        1
Au      67.16807314       0.00000000      71.46010951        1
Au      70.08842415       0.00000000      71.46010951        1
Au      73.00877516       0.00000000      71.46010951        1
Au      75.92912616       0.00000000      71.46010951        1
Au      78.84947717       0.00000000      71.46010951        1
Au      81.76982818       0.00000000      71.46010951        1
Au      84.69017918       0.00000000      71.46010951        1
Au      87.61053019       0.00000000      71.46010951        1
Au      90.53088120       0.00000000      71.46010951        1
Au      93.45123220       0.00000000      71.46010951        1
Au      96.37158321       0.00000000      71.46010951        1
Au      99.29193421       0.00000000      71.46010951        1
Au       1.46017550       2.52909816      71.46010951        1
Au       4.38052651       2.52909816      71.46010951        1
Au       7.30087752       2.52909816      71.46010951        1
Au      10.22122852       2.52909816      71.46010951        1
Au      13.14157953       2.52909816      71.46010951        1
Au      16.06193053       2.52909816      71.46010951        1
Au      18.98228154       2.52909816      71.46010951        1
Au      21.90263255       2.52909816      71.46010951        1
Au      24.82298355       2.52909816      71.46010951        1
Au      27.74333456       2.52909816      71.46010951        1
Au      30.66368557       2.52909816      71.46010951        1
Au      33.58403657       2.52909816      71.46010951        1
Au      36.50438758       2.52909816      71.46010951        1
Au      39.42473859       2.52909816      71.46010951        1
Au      42.34508959       2.52909816      71.46010951        1
Au      45.26544060       2.52909816      71.46010951        1
Au      48.18579160       2.52909816      71.46010951        1
Au      51.10614261       2.52909816      71.46010951        1
Au      54.02649362       2.52909816      71.46010951        1
Au      56.94684462       2.52909816      71.46010951        1
Au      59.86719563       2.52909816      71.46010951        1
Au      62.78754664       2.52909816      71.46010951        1
Au      65.70789764       2.52909816      71.46010951        1
Au      68.62824865       2.52909816      71.46010951        1
Au      71.54859965       2.52909816      71.46010951        1
Au      74.46895066       2.52909816      71.46010951        1
Au      77.38930167       2.52909816      71.46010951        1
Au      80.30965267       2.52909816      71.46010951        1
Au      83.23000368       2.52909816      71.46010951        1
Au      86.15035469       2.52909816      71.46010951        1
Au      89.07070569       2.52909816      71.46010951        1
Au      91.99105670       2.52909816      71.46010951        1
Au      94.91140770       2.52909816      71.46010951        1
Au      97.83175871       2.52909816      71.46010951        1
Au     100.75210972       2.52909816      71.46010951        1
Au       0.00000000       5.05819632      71.46010951        1
Au       2.92035101       5.05819632      71.46010951        1
Au       5.84070201       5.05819632      71.46010951        1
Au       8.76105302       5.05819632      71.46010951        1
Au      11.68140403       5.05819632      71.46010951        1
Au      14.60175503       5.05819632      71.46010951        1
Au      17.52210604       5.05819632      71.46010951        1
Au      20.44245704       5.05819632      71.46010951        1
Au      23.36280805       5.05819632      71.46010951        1
Au      26.28315906       5.05819632      71.46010951        1
Au      29.20351006       5.05819632      71.46010951        1
Au      32.12386107       5.05819632      71.46010951        1
Au      35.04421208       5.05819632      71.46010951        1
Au      37.96456308       5.05819632      71.46010951        1
Au      40.88491409       5.05819632      71.46010951        1
Au      43.80526509       5.05819632      71.46010951        1
Au      46.72561610       5.05819632      71.46010951        1
Au      49.64596711       5.05819632      71.46010951        1
Au      52.56631811       5.05819632      71.46010951        1
Au      55.48666912       5.05819632      71.46010951        1
Au      58.40702013       5.05819632      71.46010951        1
Au      61.32737113       5.05819632      71.46010951        1
Au      64.24772214       5.05819632      71.46010951        1
Au      67.16807314       5.05819632      71.46010951        1
Au      70.08842415       5.05819632      71.46010951        1
Au      73.00877516       5.05819632      71.46010951        1
Au      75.92912616       5.05819632      71.46010951        1
Au      78.84947717       5.05819632      71.46010951        1
Au      81.76982818       5.05819632      71.46010951        1
Au      84.69017918       5.05819632      71.46010951        1
Au      87.61053019       5.05819632      71.46010951        1
Au      90.53088120       5.05819632      71.46010951        1
Au      93.45123220       5.05819632      71.46010951        1
Au      96.37158321       5.05819632      71.46010951        1
Au      99.29193421       5.05819632      71.46010951        1
Au       1.46017550       7.58729448      71.46010951        1
Au       4.38052651       7.58729448      71.46010951        1
Au       7.30087752       7.58729448      71.46010951        1
Au      10.22122852       7.58729448      71.46010951        1
Au      13.14157953       7.58729448      71.46010951        1
Au      16.06193053       7.58729448      71.46010951        1
Au      18.98228154       7.58729448      71.46010951        1
Au      21.90263255       7.58729448      71.46010951        1
Au      24.82298355       7.58729448      71.46010951        1
Au      27.74333456       7.58729448      71.46010951        1
Au      30.66368557       7.58729448      71.46010951        1
Au      33.58403657       7.58729448      71.46010951        1
Au      36.50438758       7.58729448      71.46010951        1
Au      39.42473859       7.58729448      71.46010951        1
Au      42.34508959       7.58729448      71.46010951        1
Au      45.26544060       7.58729448      71.46010951        1
Au      48.18579160       7.58729448      71.46010951        1
Au      51.10614261       7.58729448      71.46010951        1
Au      54.02649362       7.58729448      71.46010951        1
Au      56.94684462       7.58729448      71.46010951        1
Au      59.86719563       7.58729448      71.46010951        1
Au      62.78754664       7.58729448      71.46010951        1
Au      65.70789764       7.58729448      71.46010951        1
Au      68.62824865       7.58729448      71.46010951        1
Au      71.54859965       7.58729448      71.46010951        1
Au      74.46895066       7.58729448      71.46010951        1
Au      77.38930167       7.58729448      71.46010951        1
Au      80.30965267       7.58729448      71.46010951        1
Au      83.23000368       7.58729448      71.46010951        1
Au      86.15035469       7.58729448      71.46010951        1
Au      89.07070569       7.58729448      71.46010951        1
Au      91.99105670       7.58729448      71.46010951        1
Au      94.91140770       7.58729448      71.46010951        1
Au      97.83175871       7.58729448      71.46010951        1
Au     100.75210972       7.58729448      71.46010951        1
Au       0.00000000      10.11639264      71.46010951        1
Au       2.92035101      10.11639264      71.46010951        1
Au       5.84070201      10.11639264      71.46010951        1
Au       8.76105302      10.11639264      71.46010951        1
Au      11.68140403      10.11639264      71.46010951        1
Au      14.60175503      10.11639264      71.46010951        1
Au      17.52210604      10.11639264      71.46010951        1
Au      20.44245704      10.11639264      71.46010951        1
Au      23.36280805      10.11639264      71.46010951        1
Au      26.28315906      10.11639264      71.46010951        1
Au      29.20351006      10.11639264      71.46010951        1
Au      32.12386107      10.11639264      71.46010951        1
Au      35.04421208      10.11639264      71.46010951        1
Au      37.96456308      10.11639264      71.46010951        1
Au      40.88491409      10.11639264      71.46010951        1
Au      43.80526509      10.11639264      71.46010951        1
Au      46.72561610      10.11639264      71.46010951        1
Au      49.64596711      10.11639264      71.46010951        1
Au      52.56631811      10.11639264      71.46010951        1
Au      55.48666912      10.11639264      71.46010951        1
Au      58.40702013      10.11639264      71.46010951        1
Au      61.32737113      10.11639264      71.46010951        1
Au      64.24772214      10.11639264      71.46010951        1
Au      67.16807314      10.11639264      71.46010951        1
Au      70.08842415      10.11639264      71.46010951        1
Au      73.00877516      10.11639264      71.46010951        1
Au      75.92912616      10.11639264      71.46010951        1
Au      78.84947717      10.11639264      71.46010951        1
Au      81.76982818      10.11639264      71.46010951        1
Au      84.69017918      10.11639264      71.46010951        1
Au      87.61053019      10.11639264      71.46010951        1
Au      90.53088120      10.11639264      71.46010951        1
Au      93.45123220      10.11639264      71.46010951        1
Au      96.37158321      10.11639264      71.46010951        1
Au      99.29193421      10.11639264      71.46010951        1
Au       1.46017550      12.64549080      71.46010951        1
Au       4.38052651      12.64549080      71.46010951        1
Au       7.30087752      12.64549080      71.46010951        1
Au      10.22122852      12.64549080      71.46010951        1
Au      13.14157953      12.64549080      71.46010951        1
Au      16.06193053      12.64549080      71.46010951        1
Au      18.98228154      12.64549080      71.46010951        1
Au      21.90263255      12.64549080      71.46010951        1
Au      24.82298355      12.64549080      71.46010951        1
Au      27.74333456      12.64549080      71.46010951        1
Au      30.66368557      12.64549080      71.46010951        1
Au      33.58403657      12.64549080      71.46010951        1
Au      36.50438758      12.64549080      71.46010951        1
Au      39.42473859      12.64549080      71.46010951        1
Au      42.34508959      12.64549080      71.46010951        1
Au      45.26544060      12.64549080      71.46010951        1
Au      48.18579160      12.64549080      71.46010951        1
Au      51.10614261      12.64549080      71.46010951        1
Au      54.02649362      12.64549080      71.46010951        1
Au      56.94684462      12.64549080      71.46010951        1
Au      59.86719563      12.64549080      71.46010951        1
Au      62.78754664      12.64549080      71.46010951        1
Au      65.70789764      12.64549080      71.46010951        1
Au      68.62824865      12.64549080      71.46010951        1
Au      71.54859965      12.64549080      71.46010951        1
Au      74.46895066      12.64549080      71.46010951        1
Au      77.38930167      12.64549080      71.46010951        1
Au      80.30965267      12.64549080      71.46010951        1
Au      83.23000368      12.64549080      71.46010951        1
Au      86.15035469      12.64549080      71.46010951        1
Au      89.07070569      12.64549080      71.46010951        1
Au      91.99105670      12.64549080      71.46010951        1
Au      94.91140770      12.64549080      71.46010951        1
Au      97.83175871      12.64549080      71.46010951        1
Au     100.75210972      12.64549080      71.46010951        1
Au       0.00000000      15.17458896      71.46010951        1
Au       2.92035101      15.17458896      71.46010951        1
Au       5.84070201      15.17458896      71.46010951        1
Au       8.76105302      15.17458896      71.46010951        1
Au      11.68140403      15.17458896      71.46010951        1
Au      14.60175503      15.17458896      71.46010951        1
Au      17.52210604      15.17458896      71.46010951        1
Au      20.44245704      15.17458896      71.46010951        1
Au      23.36280805      15.17458896      71.46010951        1
Au      26.28315906      15.17458896      71.46010951        1
Au      29.20351006      15.17458896      71.46010951        1
Au      32.12386107      15.17458896      71.46010951        1
Au      35.04421208      15.17458896      71.46010951        1
Au      37.96456308      15.17458896      71.46010951        1
Au      40.88491409      15.17458896      71.46010951        1
Au      43.80526509      15.17458896      71.46010951        1
Au      46.72561610      15.17458896      71.46010951        1
Au      49.64596711      15.17458896      71.46010951        1
Au      52.56631811      15.17458896      71.46010951        1
Au      55.48666912      15.17458896      71.46010951        1
Au      58.40702013      15.17458896      71.46010951        1
Au      61.32737113      15.17458896      71.46010951        1
Au      64.24772214      15.17458896      71.46010951        1
Au      67.16807314      15.17458896      71.46010951        1
Au      70.08842415      15.17458896      71.46010951        1
Au      73.00877516      15.17458896      71.46010951        1
Au      75.92912616      15.17458896      71.46010951        1
Au      78.84947717      15.17458896      71.46010951        1
Au      81.76982818      15.17458896      71.46010951        1
Au      84.69017918      15.17458896      71.46010951        1
Au      87.61053019      15.17458896      71.46010951        1
Au      90.53088120      15.17458896      71.46010951        1
Au      93.45123220      15.17458896      71.46010951        1
Au      96.37158321      15.17458896      71.46010951        1
Au      99.29193421      15.17458896      71.46010951        1
Au       1.46017550      17.70368712      71.46010951        1
Au       4.38052651      17.70368712      71.46010951        1
Au       7.30087752      17.70368712      71.46010951        1
Au      10.22122852      17.70368712      71.46010951        1
Au      13.14157953      17.70368712      71.46010951        1
Au      16.06193053      17.70368712      71.46010951        1
Au      18.98228154      17.70368712      71.46010951        1
Au      21.90263255      17.70368712      71.46010951        1
Au      24.82298355      17.70368712      71.46010951        1
Au      27.74333456      17.70368712      71.46010951        1
Au      30.66368557      17.70368712      71.46010951        1
Au      33.58403657      17.70368712      71.46010951        1
Au      36.50438758      17.70368712      71.46010951        1
Au      39.42473859      17.70368712      71.46010951        1
Au      42.34508959      17.70368712      71.46010951        1
Au      45.26544060      17.70368712      71.46010951        1
Au      48.18579160      17.70368712      71.46010951        1
Au      51.10614261      17.70368712      71.46010951        1
Au      54.02649362      17.70368712      71.46010951        1
Au      56.94684462      17.70368712      71.46010951        1
Au      59.86719563      17.70368712      71.46010951        1
Au      62.78754664      17.70368712      71.46010951        1
Au      65.70789764      17.70368712      71.46010951        1
Au      68.62824865      17.70368712      71.46010951        1
Au      71.54859965      17.70368712      71.46010951        1
Au      74.46895066      17.70368712      71.46010951        1
Au      77.38930167      17.70368712      71.46010951        1
Au      80.30965267      17.70368712      71.46010951        1
Au      83.23000368      17.70368712      71.46010951        1
Au      86.15035469      17.70368712      71.46010951        1
Au      89.07070569      17.70368712      71.46010951        1
Au      91.99105670      17.70368712      71.46010951        1
Au      94.91140770      17.70368712      71.46010951        1
Au      97.83175871      17.70368712      71.46010951        1
Au     100.75210972      17.70368712      71.46010951        1
Au       0.00000000      20.23278528      71.46010951        1
Au       2.92035101      20.23278528      71.46010951        1
Au       5.84070201      20.23278528      71.46010951        1
Au       8.76105302      20.23278528      71.46010951        1
Au      11.68140403      20.23278528      71.46010951        1
Au      14.60175503      20.23278528      71.46010951        1
Au      17.52210604      20.23278528      71.46010951        1
Au      20.44245704      20.23278528      71.46010951        1
Au      23.36280805      20.23278528      71.46010951        1
Au      26.28315906      20.23278528      71.46010951        1
Au      29.20351006      20.23278528      71.46010951        1
Au      32.12386107      20.23278528      71.46010951        1
Au      35.04421208      20.23278528      71.46010951        1
Au      37.96456308      20.23278528      71.46010951        1
Au      40.88491409      20.23278528      71.46010951        1
Au      43.80526509      20.23278528      71.46010951        1
Au      46.72561610      20.23278528      71.46010951        1
Au      49.64596711      20.23278528      71.46010951        1
Au      52.56631811      20.23278528      71.46010951        1
Au      55.48666912      20.23278528      71.46010951        1
Au      58.40702013      20.23278528      71.46010951        1
Au      61.32737113      20.23278528      71.46010951        1
Au      64.24772214      20.23278528      71.46010951        1
Au      67.16807314      20.23278528      71.46010951        1
Au      70.08842415      20.23278528      71.46010951        1
Au      73.00877516      20.23278528      71.46010951        1
Au      75.92912616      20.23278528      71.46010951        1
Au      78.84947717      20.23278528      71.46010951        1
Au      81.76982818      20.23278528      71.46010951        1
Au      84.69017918      20.23278528      71.46010951        1
Au      87.61053019      20.23278528      71.46010951        1
Au      90.53088120      20.23278528      71.46010951        1
Au      93.45123220      20.23278528      71.46010951        1
Au      96.37158321      20.23278528      71.46010951        1
Au      99.29193421      20.23278528      71.46010951        1
Au       1.46017550      22.76188343      71.46010951        1
Au       4.38052651      22.76188343      71.46010951        1
Au       7.30087752      22.76188343      71.46010951        1
Au      10.22122852      22.76188343      71.46010951        1
Au      13.14157953      22.76188343      71.46010951        1
Au      16.06193053      22.76188343      71.46010951        1
Au      18.98228154      22.76188343      71.46010951        1
Au      21.90263255      22.76188343      71.46010951        1
Au      24.82298355      22.76188343      71.46010951        1
Au      27.74333456      22.76188343      71.46010951        1
Au      30.66368557      22.76188343      71.46010951        1
Au      33.58403657      22.76188343      71.46010951        1
Au      36.50438758      22.76188343      71.46010951        1
Au      39.42473859      22.76188343      71.46010951        1
Au      42.34508959      22.76188343      71.46010951        1
Au      45.26544060      22.76188343      71.46010951        1
Au      48.18579160      22.76188343      71.46010951        1
Au      51.10614261      22.76188343      71.46010951        1
Au      54.02649362      22.76188343      71.46010951        1
Au      56.94684462      22.76188343      71.46010951        1
Au      59.86719563      22.76188343      71.46010951        1
Au      62.78754664      22.76188343      71.46010951        1
Au      65.70789764      22.76188343      71.46010951        1
Au      68.62824865      22.76188343      71.46010951        1
Au      71.54859965      22.76188343      71.46010951        1
Au      74.46895066      22.76188343      71.46010951        1
Au      77.38930167      22.76188343      71.46010951        1
Au      80.30965267      22.76188343      71.46010951        1
Au      83.23000368      22.76188343      71.46010951        1
Au      86.15035469      22.76188343      71.46010951        1
Au      89.07070569      22.76188343      71.46010951        1
Au      91.99105670      22.76188343      71.46010951        1
Au      94.91140770      22.76188343      71.46010951        1
Au      97.83175871      22.76188343      71.46010951        1
Au     100.75210972      22.76188343      71.46010951        1
Au       0.00000000      25.29098159      71.46010951        1
Au       2.92035101      25.29098159      71.46010951        1
Au       5.84070201      25.29098159      71.46010951        1
Au       8.76105302      25.29098159      71.46010951        1
Au      11.68140403      25.29098159      71.46010951        1
Au      14.60175503      25.29098159      71.46010951        1
Au      17.52210604      25.29098159      71.46010951        1
Au      20.44245704      25.29098159      71.46010951        1
Au      23.36280805      25.29098159      71.46010951        1
Au      26.28315906      25.29098159      71.46010951        1
Au      29.20351006      25.29098159      71.46010951        1
Au      32.12386107      25.29098159      71.46010951        1
Au      35.04421208      25.29098159      71.46010951        1
Au      37.96456308      25.29098159      71.46010951        1
Au      40.88491409      25.29098159      71.46010951        1
Au      43.80526509      25.29098159      71.46010951        1
Au      46.72561610      25.29098159      71.46010951        1
Au      49.64596711      25.29098159      71.46010951        1
Au      52.56631811      25.29098159      71.46010951        1
Au      55.48666912      25.29098159      71.46010951        1
Au      58.40702013      25.29098159      71.46010951        1
Au      61.32737113      25.29098159      71.46010951        1
Au      64.24772214      25.29098159      71.46010951        1
Au      67.16807314      25.29098159      71.46010951        1
Au      70.08842415      25.29098159      71.46010951        1
Au      73.00877516      25.29098159      71.46010951        1
Au      75.92912616      25.29098159      71.46010951        1
Au      78.84947717      25.29098159      71.46010951        1
Au      81.76982818      25.29098159      71.46010951        1
Au      84.69017918      25.29098159      71.46010951        1
Au      87.61053019      25.29098159      71.46010951        1
Au      90.53088120      25.29098159      71.46010951        1
Au      93.45123220      25.29098159      71.46010951        1
Au      96.37158321      25.29098159      71.46010951        1
Au      99.29193421      25.29098159      71.46010951        1
Au       1.46017550      27.82007975      71.46010951        1
Au       4.38052651      27.82007975      71.46010951        1
Au       7.30087752      27.82007975      71.46010951        1
Au      10.22122852      27.82007975      71.46010951        1
Au      13.14157953      27.82007975      71.46010951        1
Au      16.06193053      27.82007975      71.46010951        1
Au      18.98228154      27.82007975      71.46010951        1
Au      21.90263255      27.82007975      71.46010951        1
Au      24.82298355      27.82007975      71.46010951        1
Au      27.74333456      27.82007975      71.46010951        1
Au      30.66368557      27.82007975      71.46010951        1
Au      33.58403657      27.82007975      71.46010951        1
Au      36.50438758      27.82007975      71.46010951        1
Au      39.42473859      27.82007975      71.46010951        1
Au      42.34508959      27.82007975      71.46010951        1
Au      45.26544060      27.82007975      71.46010951        1
Au      48.18579160      27.82007975      71.46010951        1
Au      51.10614261      27.82007975      71.46010951        1
Au      54.02649362      27.82007975      71.46010951        1
Au      56.94684462      27.82007975      71.46010951        1
Au      59.86719563      27.82007975      71.46010951        1
Au      62.78754664      27.82007975      71.46010951        1
Au      65.70789764      27.82007975      71.46010951        1
Au      68.62824865      27.82007975      71.46010951        1
Au      71.54859965      27.82007975      71.46010951        1
Au      74.46895066      27.82007975      71.46010951        1
Au      77.38930167      27.82007975      71.46010951        1
Au      80.30965267      27.82007975      71.46010951        1
Au      83.23000368      27.82007975      71.46010951        1
Au      86.15035469      27.82007975      71.46010951        1
Au      89.07070569      27.82007975      71.46010951        1
Au      91.99105670      27.82007975      71.46010951        1
Au      94.91140770      27.82007975      71.46010951        1
Au      97.83175871      27.82007975      71.46010951        1
Au     100.75210972      27.82007975      71.46010951        1
Au       0.00000000      30.34917791      71.46010951        1
Au       2.92035101      30.34917791      71.46010951        1
Au       5.84070201      30.34917791      71.46010951        1
Au       8.76105302      30.34917791      71.46010951        1
Au      11.68140403      30.34917791      71.46010951        1
Au      14.60175503      30.34917791      71.46010951        1
Au      17.52210604      30.34917791      71.46010951        1
Au      20.44245704      30.34917791      71.46010951        1
Au      23.36280805      30.34917791      71.46010951        1
Au      26.28315906      30.34917791      71.46010951        1
Au      29.20351006      30.34917791      71.46010951        1
Au      32.12386107      30.34917791      71.46010951        1
Au      35.04421208      30.34917791      71.46010951        1
Au      37.96456308      30.34917791      71.46010951        1
Au      40.88491409      30.34917791      71.46010951        1
Au      43.80526509      30.34917791      71.46010951        1
Au      46.72561610      30.34917791      71.46010951        1
Au      49.64596711      30.34917791      71.46010951        1
Au      52.56631811      30.34917791      71.46010951        1
Au      55.48666912      30.34917791      71.46010951        1
Au      58.40702013      30.34917791      71.46010951        1
Au      61.32737113      30.34917791      71.46010951        1
Au      64.24772214      30.34917791      71.46010951        1
Au      67.16807314      30.34917791      71.46010951        1
Au      70.08842415      30.34917791      71.46010951        1
Au      73.00877516      30.34917791      71.46010951        1
Au      75.92912616      30.34917791      71.46010951        1
Au      78.84947717      30.34917791      71.46010951        1
Au      81.76982818      30.34917791      71.46010951        1
Au      84.69017918      30.34917791      71.46010951        1
Au      87.61053019      30.34917791      71.46010951        1
Au      90.53088120      30.34917791      71.46010951        1
Au      93.45123220      30.34917791      71.46010951        1
Au      96.37158321      30.34917791      71.46010951        1
Au      99.29193421      30.34917791      71.46010951        1
Au       1.46017550      32.87827607      71.46010951        1
Au       4.38052651      32.87827607      71.46010951        1
Au       7.30087752      32.87827607      71.46010951        1
Au      10.22122852      32.87827607      71.46010951        1
Au      13.14157953      32.87827607      71.46010951        1
Au      16.06193053      32.87827607      71.46010951        1
Au      18.98228154      32.87827607      71.46010951        1
Au      21.90263255      32.87827607      71.46010951        1
Au      24.82298355      32.87827607      71.46010951        1
Au      27.74333456      32.87827607      71.46010951        1
Au      30.66368557      32.87827607      71.46010951        1
Au      33.58403657      32.87827607      71.46010951        1
Au      36.50438758      32.87827607      71.46010951        1
Au      39.42473859      32.87827607      71.46010951        1
Au      42.34508959      32.87827607      71.46010951        1
Au      45.26544060      32.87827607      71.46010951        1
Au      48.18579160      32.87827607      71.46010951        1
Au      51.10614261      32.87827607      71.46010951        1
Au      54.02649362      32.87827607      71.46010951        1
Au      56.94684462      32.87827607      71.46010951        1
Au      59.86719563      32.87827607      71.46010951        1
Au      62.78754664      32.87827607      71.46010951        1
Au      65.70789764      32.87827607      71.46010951        1
Au      68.62824865      32.87827607      71.46010951        1
Au      71.54859965      32.87827607      71.46010951        1
Au      74.46895066      32.87827607      71.46010951        1
Au      77.38930167      32.87827607      71.46010951        1
Au      80.30965267      32.87827607      71.46010951        1
Au      83.23000368      32.87827607      71.46010951        1
Au      86.15035469      32.87827607      71.46010951        1
Au      89.07070569      32.87827607      71.46010951        1
Au      91.99105670      32.87827607      71.46010951        1
Au      94.91140770      32.87827607      71.46010951        1
Au      97.83175871      32.87827607      71.46010951        1
Au     100.75210972      32.87827607      71.46010951        1
Au       0.00000000      35.40737423      71.46010951        1
Au       2.92035101      35.40737423      71.46010951        1
Au       5.84070201      35.40737423      71.46010951        1
Au       8.76105302      35.40737423      71.46010951        1
Au      11.68140403      35.40737423      71.46010951        1
Au      14.60175503      35.40737423      71.46010951        1
Au      17.52210604      35.40737423      71.46010951        1
Au      20.44245704      35.40737423      71.46010951        1
Au      23.36280805      35.40737423      71.46010951        1
Au      26.28315906      35.40737423      71.46010951        1
Au      29.20351006      35.40737423      71.46010951        1
Au      32.12386107      35.40737423      71.46010951        1
Au      35.04421208      35.40737423      71.46010951        1
Au      37.96456308      35.40737423      71.46010951        1
Au      40.88491409      35.40737423      71.46010951        1
Au      43.80526509      35.40737423      71.46010951        1
Au      46.72561610      35.40737423      71.46010951        1
Au      49.64596711      35.40737423      71.46010951        1
Au      52.56631811      35.40737423      71.46010951        1
Au      55.48666912      35.40737423      71.46010951        1
Au      58.40702013      35.40737423      71.46010951        1
Au      61.32737113      35.40737423      71.46010951        1
Au      64.24772214      35.40737423      71.46010951        1
Au      67.16807314      35.40737423      71.46010951        1
Au      70.08842415      35.40737423      71.46010951        1
Au      73.00877516      35.40737423      71.46010951        1
Au      75.92912616      35.40737423      71.46010951        1
Au      78.84947717      35.40737423      71.46010951        1
Au      81.76982818      35.40737423      71.46010951        1
Au      84.69017918      35.40737423      71.46010951        1
Au      87.61053019      35.40737423      71.46010951        1
Au      90.53088120      35.40737423      71.46010951        1
Au      93.45123220      35.40737423      71.46010951        1
Au      96.37158321      35.40737423      71.46010951        1
Au      99.29193421      35.40737423      71.46010951        1
Au       1.46017550      37.93647239      71.46010951        1
Au       4.38052651      37.93647239      71.46010951        1
Au       7.30087752      37.93647239      71.46010951        1
Au      10.22122852      37.93647239      71.46010951        1
Au      13.14157953      37.93647239      71.46010951        1
Au      16.06193053      37.93647239      71.46010951        1
Au      18.98228154      37.93647239      71.46010951        1
Au      21.90263255      37.93647239      71.46010951        1
Au      24.82298355      37.93647239      71.46010951        1
Au      27.74333456      37.93647239      71.46010951        1
Au      30.66368557      37.93647239      71.46010951        1
Au      33.58403657      37.93647239      71.46010951        1
Au      36.50438758      37.93647239      71.46010951        1
Au      39.42473859      37.93647239      71.46010951        1
Au      42.34508959      37.93647239      71.46010951        1
Au      45.26544060      37.93647239      71.46010951        1
Au      48.18579160      37.93647239      71.46010951        1
Au      51.10614261      37.93647239      71.46010951        1
Au      54.02649362      37.93647239      71.46010951        1
Au      56.94684462      37.93647239      71.46010951        1
Au      59.86719563      37.93647239      71.46010951        1
Au      62.78754664      37.93647239      71.46010951        1
Au      65.70789764      37.93647239      71.46010951        1
Au      68.62824865      37.93647239      71.46010951        1
Au      71.54859965      37.93647239      71.46010951        1
Au      74.46895066      37.93647239      71.46010951        1
Au      77.38930167      37.93647239      71.46010951        1
Au      80.30965267      37.93647239      71.46010951        1
Au      83.23000368      37.93647239      71.46010951        1
Au      86.15035469      37.93647239      71.46010951        1
Au      89.07070569      37.93647239      71.46010951        1
Au      91.99105670      37.93647239      71.46010951        1
Au      94.91140770      37.93647239      71.46010951        1
Au      97.83175871      37.93647239      71.46010951        1
Au     100.75210972      37.93647239      71.46010951        1
Au       0.00000000      40.46557055      71.46010951        1
Au       2.92035101      40.46557055      71.46010951        1
Au       5.84070201      40.46557055      71.46010951        1
Au       8.76105302      40.46557055      71.46010951        1
Au      11.68140403      40.46557055      71.46010951        1
Au      14.60175503      40.46557055      71.46010951        1
Au      17.52210604      40.46557055      71.46010951        1
Au      20.44245704      40.46557055      71.46010951        1
Au      23.36280805      40.46557055      71.46010951        1
Au      26.28315906      40.46557055      71.46010951        1
Au      29.20351006      40.46557055      71.46010951        1
Au      32.12386107      40.46557055      71.46010951        1
Au      35.04421208      40.46557055      71.46010951        1
Au      37.96456308      40.46557055      71.46010951        1
Au      40.88491409      40.46557055      71.46010951        1
Au      43.80526509      40.46557055      71.46010951        1
Au      46.72561610      40.46557055      71.46010951        1
Au      49.64596711      40.46557055      71.46010951        1
Au      52.56631811      40.46557055      71.46010951        1
Au      55.48666912      40.46557055      71.46010951        1
Au      58.40702013      40.46557055      71.46010951        1
Au      61.32737113      40.46557055      71.46010951        1
Au      64.24772214      40.46557055      71.46010951        1
Au      67.16807314      40.46557055      71.46010951        1
Au      70.08842415      40.46557055      71.46010951        1
Au      73.00877516      40.46557055      71.46010951        1
Au      75.92912616      40.46557055      71.46010951        1
Au      78.84947717      40.46557055      71.46010951        1
Au      81.76982818      40.46557055      71.46010951        1
Au      84.69017918      40.46557055      71.46010951        1
Au      87.61053019      40.46557055      71.46010951        1
Au      90.53088120      40.46557055      71.46010951        1
Au      93.45123220      40.46557055      71.46010951        1
Au      96.37158321      40.46557055      71.46010951        1
Au      99.29193421      40.46557055      71.46010951        1
Au       1.46017550      42.99466871      71.46010951        1
Au       4.38052651      42.99466871      71.46010951        1
Au       7.30087752      42.99466871      71.46010951        1
Au      10.22122852      42.99466871      71.46010951        1
Au      13.14157953      42.99466871      71.46010951        1
Au      16.06193053      42.99466871      71.46010951        1
Au      18.98228154      42.99466871      71.46010951        1
Au      21.90263255      42.99466871      71.46010951        1
Au      24.82298355      42.99466871      71.46010951        1
Au      27.74333456      42.99466871      71.46010951        1
Au      30.66368557      42.99466871      71.46010951        1
Au      33.58403657      42.99466871      71.46010951        1
Au      36.50438758      42.99466871      71.46010951        1
Au      39.42473859      42.99466871      71.46010951        1
Au      42.34508959      42.99466871      71.46010951        1
Au      45.26544060      42.99466871      71.46010951        1
Au      48.18579160      42.99466871      71.46010951        1
Au      51.10614261      42.99466871      71.46010951        1
Au      54.02649362      42.99466871      71.46010951        1
Au      56.94684462      42.99466871      71.46010951        1
Au      59.86719563      42.99466871      71.46010951        1
Au      62.78754664      42.99466871      71.46010951        1
Au      65.70789764      42.99466871      71.46010951        1
Au      68.62824865      42.99466871      71.46010951        1
Au      71.54859965      42.99466871      71.46010951        1
Au      74.46895066      42.99466871      71.46010951        1
Au      77.38930167      42.99466871      71.46010951        1
Au      80.30965267      42.99466871      71.46010951        1
Au      83.23000368      42.99466871      71.46010951        1
Au      86.15035469      42.99466871      71.46010951        1
Au      89.07070569      42.99466871      71.46010951        1
Au      91.99105670      42.99466871      71.46010951        1
Au      94.91140770      42.99466871      71.46010951        1
Au      97.83175871      42.99466871      71.46010951        1
Au     100.75210972      42.99466871      71.46010951        1
Au       0.00000000      45.52376687      71.46010951        1
Au       2.92035101      45.52376687      71.46010951        1
Au       5.84070201      45.52376687      71.46010951        1
Au       8.76105302      45.52376687      71.46010951        1
Au      11.68140403      45.52376687      71.46010951        1
Au      14.60175503      45.52376687      71.46010951        1
Au      17.52210604      45.52376687      71.46010951        1
Au      20.44245704      45.52376687      71.46010951        1
Au      23.36280805      45.52376687      71.46010951        1
Au      26.28315906      45.52376687      71.46010951        1
Au      29.20351006      45.52376687      71.46010951        1
Au      32.12386107      45.52376687      71.46010951        1
Au      35.04421208      45.52376687      71.46010951        1
Au      37.96456308      45.52376687      71.46010951        1
Au      40.88491409      45.52376687      71.46010951        1
Au      43.80526509      45.52376687      71.46010951        1
Au      46.72561610      45.52376687      71.46010951        1
Au      49.64596711      45.52376687      71.46010951        1
Au      52.56631811      45.52376687      71.46010951        1
Au      55.48666912      45.52376687      71.46010951        1
Au      58.40702013      45.52376687      71.46010951        1
Au      61.32737113      45.52376687      71.46010951        1
Au      64.24772214      45.52376687      71.46010951        1
Au      67.16807314      45.52376687      71.46010951        1
Au      70.08842415      45.52376687      71.46010951        1
Au      73.00877516      45.52376687      71.46010951        1
Au      75.92912616      45.52376687      71.46010951        1
Au      78.84947717      45.52376687      71.46010951        1
Au      81.76982818      45.52376687      71.46010951        1
Au      84.69017918      45.52376687      71.46010951        1
Au      87.61053019      45.52376687      71.46010951        1
Au      90.53088120      45.52376687      71.46010951        1
Au      93.45123220      45.52376687      71.46010951        1
Au      96.37158321      45.52376687      71.46010951        1
Au      99.29193421      45.52376687      71.46010951        1
Au       1.46017550      48.05286503      71.46010951        1
Au       4.38052651      48.05286503      71.46010951        1
Au       7.30087752      48.05286503      71.46010951        1
Au      10.22122852      48.05286503      71.46010951        1
Au      13.14157953      48.05286503      71.46010951        1
Au      16.06193053      48.05286503      71.46010951        1
Au      18.98228154      48.05286503      71.46010951        1
Au      21.90263255      48.05286503      71.46010951        1
Au      24.82298355      48.05286503      71.46010951        1
Au      27.74333456      48.05286503      71.46010951        1
Au      30.66368557      48.05286503      71.46010951        1
Au      33.58403657      48.05286503      71.46010951        1
Au      36.50438758      48.05286503      71.46010951        1
Au      39.42473859      48.05286503      71.46010951        1
Au      42.34508959      48.05286503      71.46010951        1
Au      45.26544060      48.05286503      71.46010951        1
Au      48.18579160      48.05286503      71.46010951        1
Au      51.10614261      48.05286503      71.46010951        1
Au      54.02649362      48.05286503      71.46010951        1
Au      56.94684462      48.05286503      71.46010951        1
Au      59.86719563      48.05286503      71.46010951        1
Au      62.78754664      48.05286503      71.46010951        1
Au      65.70789764      48.05286503      71.46010951        1
Au      68.62824865      48.05286503      71.46010951        1
Au      71.54859965      48.05286503      71.46010951        1
Au      74.46895066      48.05286503      71.46010951        1
Au      77.38930167      48.05286503      71.46010951        1
Au      80.30965267      48.05286503      71.46010951        1
Au      83.23000368      48.05286503      71.46010951        1
Au      86.15035469      48.05286503      71.46010951        1
Au      89.07070569      48.05286503      71.46010951        1
Au      91.99105670      48.05286503      71.46010951        1
Au      94.91140770      48.05286503      71.46010951        1
Au      97.83175871      48.05286503      71.46010951        1
Au     100.75210972      48.05286503      71.46010951        1
