1004
Lattice="27.25 0.0 0.0 0.0 27.25 0.0 0.0 0.0 27.25" Properties=species:S:1:pos:R:3:move_mask:L:1:spacegroup_kinds:I:1:forces:R:3 energy=-10128.397565850364 bias_energy=0 name=displace pbc="T T T"
Si      25.20979250       0.90061250      20.11322500  F        0       0.00000000       0.00000000       0.00000000
Si       0.68343000       3.62397750      20.11322500  F        1       0.00000000       0.00000000       0.00000000
Si      25.21033750       3.62397750      22.83686250  F        2       0.00000000       0.00000000       0.00000000
Si       0.68261250       0.90143000      22.83768000  F        3       0.00000000       0.00000000       0.00000000
Si      26.57147500       2.26256750      21.47490750  F        4       0.00000000       0.00000000       0.00000000
Si       2.04429500       4.98538750      21.47599750  F        5       0.00000000       0.00000000       0.00000000
Si       2.04538500       2.26256750      24.19936250  F        6       0.00000000       0.00000000       0.00000000
Si      26.57229250       4.98566000      24.19854500  F        7       0.00000000       0.00000000       0.00000000
Si       3.40543250       0.90224750      20.11431500  F        8       0.00000000       0.00000000       0.00000000
Si       6.13070500       3.62152500      20.11349750  F        9       0.00000000       0.00000000       0.00000000
Si       3.40679500       3.62425000      22.83795250  F       10       0.00000000       0.00000000       0.00000000
Si       6.13070500       0.90224750      22.83931500  F       11       0.00000000       0.00000000       0.00000000
Si       4.76847750       2.26229500      21.47654250  F       12       0.00000000       0.00000000       0.00000000
Si       7.49211500       4.98239000      21.47736000  F       13       0.00000000       0.00000000       0.00000000
Si       7.49402250       2.26229500      24.20072500  F       14       0.00000000       0.00000000       0.00000000
Si       4.76902250       4.98538750      24.20045250  F       15       0.00000000       0.00000000       0.00000000
Si       8.85734000       0.90034000      20.11377000  F       16       0.00000000       0.00000000       0.00000000
Si      11.58452000       3.62043500      20.11458750  F       17       0.00000000       0.00000000       0.00000000
Si       8.85706750       3.62207000      22.83904250  F       18       0.00000000       0.00000000       0.00000000
Si      11.58397500       0.90034000      22.83849750  F       19       0.00000000       0.00000000       0.00000000
Si      10.22038500       2.26093250      21.47654250  F       20       0.00000000       0.00000000       0.00000000
Si      12.94729250       4.97966500      21.48035750  F       21       0.00000000       0.00000000       0.00000000
Si      12.94756500       2.26038750      24.20072500  F       22       0.00000000       0.00000000       0.00000000
Si      10.21902250       4.98048250      24.20508500  F       23       0.00000000       0.00000000       0.00000000
Si      14.31061000       0.89979500      20.11213500  F       24       0.00000000       0.00000000       0.00000000
Si      17.03915250       3.61852750      20.11486000  F       25       0.00000000       0.00000000       0.00000000
Si      14.31197250       3.62016250      22.83986000  F       26       0.00000000       0.00000000       0.00000000
Si      17.03751750       0.89952250      22.83768000  F       27       0.00000000       0.00000000       0.00000000
Si      15.67420000       2.25929750      21.47599750  F       28       0.00000000       0.00000000       0.00000000
Si      18.40083500       4.98375250      21.47545250  F       29       0.00000000       0.00000000       0.00000000
Si      18.40029000       2.26120500      24.19827250  F       30       0.00000000       0.00000000       0.00000000
Si      15.67447250       4.98402500      24.20045250  F       31       0.00000000       0.00000000       0.00000000
Si      19.76333500       0.89843250      20.11349750  F       32       0.00000000       0.00000000       0.00000000
Si      22.48779000       3.62261500      20.11322500  F       33       0.00000000       0.00000000       0.00000000
Si      19.76306250       3.62288750      22.83686250  F       34       0.00000000       0.00000000       0.00000000
Si      22.48642750       0.90006750      22.83686250  F       35       0.00000000       0.00000000       0.00000000
Si      21.12501750       2.26147750      21.47463500  F       36       0.00000000       0.00000000       0.00000000
Si      23.84920000       4.98538750      21.47463500  F       37       0.00000000       0.00000000       0.00000000
Si      23.84865500       2.26175000      24.19800000  F       38       0.00000000       0.00000000       0.00000000
Si      21.12529000       4.98538750      24.19772750  F       39       0.00000000       0.00000000       0.00000000
Si      25.21197250       6.34707000      20.11349750  F       40       0.00000000       0.00000000       0.00000000
Si       0.68097750       9.07288750      20.11377000  F       41       0.00000000       0.00000000       0.00000000
Si      25.21088250       9.07288750      22.83768000  F       42       0.00000000       0.00000000       0.00000000
Si       0.68343000       6.34788750      22.83740750  F       43       0.00000000       0.00000000       0.00000000
Si      26.57147500       7.71011500      21.47599750  F       44       0.00000000       0.00000000       0.00000000
Si       2.03966250      10.43429750      21.47954000  F       45       0.00000000       0.00000000       0.00000000
Si       2.04429500       7.70957000      24.20018000  F       46       0.00000000       0.00000000       0.00000000
Si      26.57093000      10.43566000      24.20045250  F       47       0.00000000       0.00000000       0.00000000
Si       3.40488750       6.34652500      20.11349750  F       48       0.00000000       0.00000000       0.00000000
Si       6.12634500       9.06934500      20.11704000  F       49       0.00000000       0.00000000       0.00000000
Si       3.40461500       9.07207000      22.83986000  F       50       0.00000000       0.00000000       0.00000000
Si       6.13070500       6.34652500      22.83931500  F       51       0.00000000       0.00000000       0.00000000
Si       4.76602500       7.70766250      21.47790500  F       52       0.00000000       0.00000000       0.00000000
Si       7.47740000      10.42966500      21.49561750  F       53       0.00000000       0.00000000       0.00000000
Si       7.49102500       7.70684500      24.20617500  F       54       0.00000000       0.00000000       0.00000000
Si       4.76221000      10.43266250      24.20862750  F       55       0.00000000       0.00000000       0.00000000
Si       8.85461500       6.34216500      20.11622250  F       56       0.00000000       0.00000000       0.00000000
Si      11.57770750       9.05190500      20.13775000  F       57       0.00000000       0.00000000       0.00000000
Si       8.85243500       9.06825500      22.84776250  F       58       0.00000000       0.00000000       0.00000000
Si      11.58424750       6.33862250      22.84749000  F       59       0.00000000       0.00000000       0.00000000
Si      10.21411750       7.69540000      21.49207500  F       60       0.00000000       0.00000000       0.00000000
Si      12.93911750      10.41876500      21.50025000  F       61       0.00000000       0.00000000       0.00000000
Si      12.94620250       7.70303000      24.20890000  F       62       0.00000000       0.00000000       0.00000000
Si      10.21548000      10.43293500      24.20971750  F       63       0.00000000       0.00000000       0.00000000
Si      14.31360750       6.33835000      20.12031000  F       64       0.00000000       0.00000000       0.00000000
Si      17.04051500       9.07016250      20.11840250  F       65       0.00000000       0.00000000       0.00000000
Si      14.31170000       9.06253250      22.85103250  F       66       0.00000000       0.00000000       0.00000000
Si      17.03860750       6.34543500      22.83904250  F       67       0.00000000       0.00000000       0.00000000
Si      15.67529000       7.70657250      21.47981250  F       68       0.00000000       0.00000000       0.00000000
Si      18.40383250      10.43511500      21.47981250  F       69       0.00000000       0.00000000       0.00000000
Si      18.40056250       7.70984250      24.19990750  F       70       0.00000000       0.00000000       0.00000000
Si      15.67583500      10.43457000      24.20454000  F       71       0.00000000       0.00000000       0.00000000
Si      19.76497000       6.34543500      20.11431500  F       72       0.00000000       0.00000000       0.00000000
Si      22.49187750       9.07125250      20.11486000  F       73       0.00000000       0.00000000       0.00000000
Si      19.76497000       9.07179750      22.83904250  F       74       0.00000000       0.00000000       0.00000000
Si      22.48751750       6.34734250      22.83686250  F       75       0.00000000       0.00000000       0.00000000
Si      21.12665250       7.70984250      21.47545250  F       76       0.00000000       0.00000000       0.00000000
Si      23.85110750      10.43647750      21.47599750  F       77       0.00000000       0.00000000       0.00000000
Si      23.84920000       7.71011500      24.19827250  F       78       0.00000000       0.00000000       0.00000000
Si      21.12665250      10.43593250      24.20045250  F       79       0.00000000       0.00000000       0.00000000
Si      25.21061000      11.79979500      20.11213500  F       80       0.00000000       0.00000000       0.00000000
Si       0.68070500      14.52752000      20.11458750  F       81       0.00000000       0.00000000       0.00000000
Si      25.21006500      14.52643000      22.83849750  F       82       0.00000000       0.00000000       0.00000000
Si       0.68016000      11.79979500      22.84013250  F       83       0.00000000       0.00000000       0.00000000
Si      26.57065750      13.16311250      21.47599750  F       84       0.00000000       0.00000000       0.00000000
Si       2.03612000      15.89192750      21.48281000  F       85       0.00000000       0.00000000       0.00000000
Si       2.03693750      13.16175000      24.20835500  F       86       0.00000000       0.00000000       0.00000000
Si      26.56875000      15.89002000      24.20236000  F       87       0.00000000       0.00000000       0.00000000
Si       3.39780250      11.79925000      20.12085500  F       88       0.00000000       0.00000000       0.00000000
Si       6.09201000      14.53896500      20.15355500  F       89       0.00000000       0.00000000       0.00000000
Si       3.39208000      14.53079000      22.85321250  F       90       0.00000000       0.00000000       0.00000000
Si       6.11871500      11.79897750      22.85321250  F       91       0.00000000       0.00000000       0.00000000
Si       4.74531500      13.16093250      21.49997750  F       92       0.00000000       0.00000000       0.00000000
Si       7.47167750      15.89955750      21.50352000  F       93       0.00000000       0.00000000       0.00000000
Si       7.48312250      13.16202250      24.21435000  F       94       0.00000000       0.00000000       0.00000000
Si       4.75921250      15.89220000      24.21217000  F       95       0.00000000       0.00000000       0.00000000
Si       8.83063500      11.79380000      20.14183750  F       96       0.00000000       0.00000000       0.00000000
Si      11.55100250      14.55940250      20.19361250  F       97       0.00000000       0.00000000       0.00000000
Si       8.83935500      14.53133500      22.85893500  F       98       0.00000000       0.00000000       0.00000000
Si      11.57634500      11.79625250      22.85130500  F       99       0.00000000       0.00000000       0.00000000
Si      10.19449750      13.15929750      21.50570000  F      100       0.00000000       0.00000000       0.00000000
Si      12.95110750      15.91618000      21.50570000  F      101       0.00000000       0.00000000       0.00000000
Si      12.94593000      13.16447500      24.20399500  F      102       0.00000000       0.00000000       0.00000000
Si      10.21575250      15.89465250      24.20917250  F      103       0.00000000       0.00000000       0.00000000
Si      14.32832250      11.78208250      20.18107750  F      104       0.00000000       0.00000000       0.00000000
Si      17.05850000      14.53297000      20.13775000  F      105       0.00000000       0.00000000       0.00000000
Si      14.31415250      14.53406000      22.85130500  F      106       0.00000000       0.00000000       0.00000000
Si      17.04787250      11.79870500      22.85103250  F      107       0.00000000       0.00000000       0.00000000
Si      15.69164000      13.17128750      21.50025000  F      108       0.00000000       0.00000000       0.00000000
Si      18.41500500      15.89628750      21.49207500  F      109       0.00000000       0.00000000       0.00000000
Si      18.40737500      13.16420250      24.20890000  F      110       0.00000000       0.00000000       0.00000000
Si      15.67747000      15.89492500      24.20971750  F      111       0.00000000       0.00000000       0.00000000
Si      19.77205500      11.79707000      20.12031000  F      112       0.00000000       0.00000000       0.00000000
Si      22.48997000      14.52588500      20.11458750  F      113       0.00000000       0.00000000       0.00000000
Si      19.77178250      14.52615750      22.84749000  F      114       0.00000000       0.00000000       0.00000000
Si      22.49024250      11.79843250      22.83986000  F      115       0.00000000       0.00000000       0.00000000
Si      21.13074000      13.16311250      21.48035750  F      116       0.00000000       0.00000000       0.00000000
Si      23.84947250      15.89002000      21.47654250  F      117       0.00000000       0.00000000       0.00000000
Si      23.85001750      13.16284000      24.20072500  F      118       0.00000000       0.00000000       0.00000000
Si      21.12992250      15.89165500      24.20508500  F      119       0.00000000       0.00000000       0.00000000
Si      25.21006500      17.25306500      20.11377000  F      120       0.00000000       0.00000000       0.00000000
Si       0.67689000      19.98297000      20.11758500  F      121       0.00000000       0.00000000       0.00000000
Si      25.20815750      19.97970000      22.83931500  F      122       0.00000000       0.00000000       0.00000000
Si       0.67770750      17.25551750      22.84258500  F      123       0.00000000       0.00000000       0.00000000
Si      26.56793250      18.61720000      21.47790500  F      124       0.00000000       0.00000000       0.00000000
Si       2.04020750      21.34465250      21.47926750  F      125       0.00000000       0.00000000       0.00000000
Si       2.04048000      18.61774500      24.20426750  F      126       0.00000000       0.00000000       0.00000000
Si      26.56984000      21.34192750      24.20099750  F      127       0.00000000       0.00000000       0.00000000
Si       3.39235250      17.26205750      20.12439750  F      128       0.00000000       0.00000000       0.00000000
Si       6.11817000      19.99223500      20.12603250  F      129       0.00000000       0.00000000       0.00000000
Si       3.39998250      19.98433250      22.84476500  F      130       0.00000000       0.00000000       0.00000000
Si       6.11626250      17.26369250      22.85730000  F      131       0.00000000       0.00000000       0.00000000
Si       4.75921250      18.62292250      21.48553500  F      132       0.00000000       0.00000000       0.00000000
Si       7.48748250      21.35146500      21.48553500  F      133       0.00000000       0.00000000       0.00000000
Si       7.48775500      18.62265000      24.21298750  F      134       0.00000000       0.00000000       0.00000000
Si       4.76575250      21.34492500      24.20508500  F      135       0.00000000       0.00000000       0.00000000
Si       8.82872750      17.28167750      20.15709750  F      136       0.00000000       0.00000000       0.00000000
Si      11.57144000      20.01839500      20.15355500  F      137       0.00000000       0.00000000       0.00000000
Si       8.84671250      19.99414250      22.85730000  F      138       0.00000000       0.00000000       0.00000000
Si      11.57934250      17.27105000      22.85893500  F      139       0.00000000       0.00000000       0.00000000
Si      10.21084750      18.63872750      21.50352000  F      140       0.00000000       0.00000000       0.00000000
Si      12.94974500      21.36509000      21.49997750  F      141       0.00000000       0.00000000       0.00000000
Si      12.94838250      18.62728250      24.21435000  F      142       0.00000000       0.00000000       0.00000000
Si      10.21820500      21.35119250      24.21217000  F      143       0.00000000       0.00000000       0.00000000
Si      14.31660500      17.27977000      20.14183750  F      144       0.00000000       0.00000000       0.00000000
Si      17.04106000      19.98433250      20.11704000  F      145       0.00000000       0.00000000       0.00000000
Si      14.31142750      19.99169000      22.85321250  F      146       0.00000000       0.00000000       0.00000000
Si      17.04215000      17.25797000      22.84776250  F      147       0.00000000       0.00000000       0.00000000
Si      15.68101250      18.63300500      21.49561750  F      148       0.00000000       0.00000000       0.00000000
Si      18.40274250      21.34465250      21.47790500  F      149       0.00000000       0.00000000       0.00000000
Si      18.40356000      18.61938000      24.20617500  F      150       0.00000000       0.00000000       0.00000000
Si      15.67774250      21.34819500      24.20862750  F      151       0.00000000       0.00000000       0.00000000
Si      19.76824000      17.25579000      20.11622250  F      152       0.00000000       0.00000000       0.00000000
Si      22.48888000      19.97997250      20.11349750  F      153       0.00000000       0.00000000       0.00000000
Si      19.76388000      19.97970000      22.83931500  F      154       0.00000000       0.00000000       0.00000000
Si      22.48833500      17.25333750      22.83904250  F      155       0.00000000       0.00000000       0.00000000
Si      21.12801500      18.61829000      21.47736000  F      156       0.00000000       0.00000000       0.00000000
Si      23.84811000      21.34220000      21.47654250  F      157       0.00000000       0.00000000       0.00000000
Si      23.84811000      18.61638250      24.20072500  F      158       0.00000000       0.00000000       0.00000000
Si      21.12501750      21.34165500      24.20045250  F      159       0.00000000       0.00000000       0.00000000
Si      25.20843000      22.70497250      20.11431500  F      160       0.00000000       0.00000000       0.00000000
Si       0.68097750      25.42942750      20.11458750  F      161       0.00000000       0.00000000       0.00000000
Si      25.20897500      25.42779250      22.83768000  F      162       0.00000000       0.00000000       0.00000000
Si       0.68016000      22.70579000      22.84040500  F      163       0.00000000       0.00000000       0.00000000
Si      26.57011250      24.06665500      21.47627000  F      164       0.00000000       0.00000000       0.00000000
Si       2.04375000      26.79056500      21.47627000  F      165       0.00000000       0.00000000       0.00000000
Si       2.04347750      24.06692750      24.20127000  F      166       0.00000000       0.00000000       0.00000000
Si      26.57147500      26.78920250      24.19909000  F      167       0.00000000       0.00000000       0.00000000
Si       3.40025500      22.71015000      20.11867500  F      168       0.00000000       0.00000000       0.00000000
Si       6.12770750      25.43378750      20.11758500  F      169       0.00000000       0.00000000       0.00000000
Si       3.40461500      25.43024500      22.84040500  F      170       0.00000000       0.00000000       0.00000000
Si       6.12607250      22.71042250      22.84476500  F      171       0.00000000       0.00000000       0.00000000
Si       4.76575250      24.07047000      21.47926750  F      172       0.00000000       0.00000000       0.00000000
Si       7.49320500      26.79247250      21.47790500  F      173       0.00000000       0.00000000       0.00000000
Si       7.49266000      24.06992500      24.20426750  F      174       0.00000000       0.00000000       0.00000000
Si       4.76875000      26.79056500      24.20099750  F      175       0.00000000       0.00000000       0.00000000
Si       8.84834750      22.71805250      20.12439750  F      176       0.00000000       0.00000000       0.00000000
Si      11.58288500      25.42970000      20.11458750  F      177       0.00000000       0.00000000       0.00000000
Si       8.85488750      25.43297000      22.84258500  F      178       0.00000000       0.00000000       0.00000000
Si      11.57961500      22.71832500      22.85321250  F      179       0.00000000       0.00000000       0.00000000
Si      10.21847750      24.07428500      21.48281000  F      180       0.00000000       0.00000000       0.00000000
Si      12.94756500      26.78974750      21.47599750  F      181       0.00000000       0.00000000       0.00000000
Si      12.94865500      24.07346750      24.20835500  F      182       0.00000000       0.00000000       0.00000000
Si      10.22065750      26.79165500      24.20236000  F      183       0.00000000       0.00000000       0.00000000
Si      14.31115500      22.71260250      20.12085500  F      184       0.00000000       0.00000000       0.00000000
Si      17.03779000      25.42970000      20.11377000  F      185       0.00000000       0.00000000       0.00000000
Si      14.31088250      25.43024500      22.84013250  F      186       0.00000000       0.00000000       0.00000000
Si      17.03833500      22.70579000      22.83986000  F      187       0.00000000       0.00000000       0.00000000
Si      15.67610750      24.07074250      21.47954000  F      188       0.00000000       0.00000000       0.00000000
Si      18.40056250      26.78893000      21.47599750  F      189       0.00000000       0.00000000       0.00000000
Si      18.40110750      24.06611000      24.20018000  F      190       0.00000000       0.00000000       0.00000000
Si      15.67501750      26.78947500      24.20045250  F      191       0.00000000       0.00000000       0.00000000
Si      19.76415250      22.70551750      20.11349750  F      192       0.00000000       0.00000000       0.00000000
Si      22.48670000      25.42724750      20.11322500  F      193       0.00000000       0.00000000       0.00000000
Si      19.76251750      25.42697500      22.83740750  F      194       0.00000000       0.00000000       0.00000000
Si      22.48615500      22.70361000      22.83795250  F      195       0.00000000       0.00000000       0.00000000
Si      21.12501750      24.06611000      21.47599750  F      196       0.00000000       0.00000000       0.00000000
Si      23.84811000      26.78893000      21.47490750  F      197       0.00000000       0.00000000       0.00000000
Si      23.84783750      24.06529250      24.19936250  F      198       0.00000000       0.00000000       0.00000000
Si      21.12474500      26.78838500      24.19854500  F      199       0.00000000       0.00000000       0.00000000
Si      25.21006500       0.90034000      25.56022750  F      200       0.00000000       0.00000000       0.00000000
Si       0.68397500       3.62425000      25.56050000  F      201       0.00000000       0.00000000       0.00000000
Si      25.21142750       3.62316000       1.03250250  F      202       0.00000000       0.00000000       0.00000000
Si       0.68397500       0.90034000       1.03413750  F      203       0.00000000       0.00000000       0.00000000
Si      26.57283750       2.26147750      26.92163750  F      204       0.00000000       0.00000000       0.00000000
Si       2.04620250       4.98538750      26.92218250  F      205       0.00000000       0.00000000       0.00000000
Si       2.04647500       2.26147750       2.39527500  F      206       0.00000000       0.00000000       0.00000000
Si      26.57420000       4.98429750       2.39391250  F      207       0.00000000       0.00000000       0.00000000
Si       3.40679500       0.90170250      25.56186250  F      208       0.00000000       0.00000000       0.00000000
Si       6.13179500       3.62397750      25.56186250  F      209       0.00000000       0.00000000       0.00000000
Si       3.40788500       3.62370500       1.03413750  F      210       0.00000000       0.00000000       0.00000000
Si       6.13179500       0.90088500       1.03522750  F      211       0.00000000       0.00000000       0.00000000
Si       4.76984000       2.26229500      26.92327250  F      212       0.00000000       0.00000000       0.00000000
Si       7.49402250       4.98429750      26.92436250  F      213       0.00000000       0.00000000       0.00000000
Si       7.49456750       2.26147750       2.39609250  F      214       0.00000000       0.00000000       0.00000000
Si       4.76984000       4.98484250       2.39582000  F      215       0.00000000       0.00000000       0.00000000
Si       8.85679500       0.90143000      25.56268000  F      216       0.00000000       0.00000000       0.00000000
Si      11.58452000       3.62070750      25.56377000  F      217       0.00000000       0.00000000       0.00000000
Si       8.85706750       3.62234250       1.03413750  F      218       0.00000000       0.00000000       0.00000000
Si      11.58370250       0.89870500       1.03359250  F      219       0.00000000       0.00000000       0.00000000
Si      10.22038500       2.26066000      26.92409000  F      220       0.00000000       0.00000000       0.00000000
Si      12.94756500       4.98239000      26.92463500  F      221       0.00000000       0.00000000       0.00000000
Si      12.94892750       2.25657250       2.39227750  F      222       0.00000000       0.00000000       0.00000000
Si      10.22065750       4.98266250       2.39418500  F      223       0.00000000       0.00000000       0.00000000
Si      14.31115500       0.89979500      25.56131750  F      224       0.00000000       0.00000000       0.00000000
Si      17.03806250       3.62207000      25.55995500  F      225       0.00000000       0.00000000       0.00000000
Si      14.31170000       3.61934500       1.03250250  F      226       0.00000000       0.00000000       0.00000000
Si      17.03806250       0.89788750       1.03168500  F      227       0.00000000       0.00000000       0.00000000
Si      15.67529000       2.26011500      26.92109250  F      228       0.00000000       0.00000000       0.00000000
Si      18.40165250       4.98375250      26.92000250  F      229       0.00000000       0.00000000       0.00000000
Si      18.40274250       2.25793500       2.39146000  F      230       0.00000000       0.00000000       0.00000000
Si      15.67747000       4.97993750       2.39064250  F      231       0.00000000       0.00000000       0.00000000
Si      19.76251750       0.89925000      25.55968250  F      232       0.00000000       0.00000000       0.00000000
Si      22.48724500       3.62343250      25.55913750  F      233       0.00000000       0.00000000       0.00000000
Si      19.76415250       3.62125250       1.03086750  F      234       0.00000000       0.00000000       0.00000000
Si      22.48724500       0.89897750       1.03250250  F      235       0.00000000       0.00000000       0.00000000
Si      21.12583500       2.26038750      26.92000250  F      236       0.00000000       0.00000000       0.00000000
Si      23.85001750       4.98457000      26.92000250  F      237       0.00000000       0.00000000       0.00000000
Si      23.85083500       2.25957000       2.39336750  F      238       0.00000000       0.00000000       0.00000000
Si      21.12883250       4.98157250       2.39064250  F      239       0.00000000       0.00000000       0.00000000
Si      25.21115500       6.34788750      25.55968250  F      240       0.00000000       0.00000000       0.00000000
Si       0.68370250       9.07288750      25.56104500  F      241       0.00000000       0.00000000       0.00000000
Si      25.21251750       9.07234250       1.03168500  F      242       0.00000000       0.00000000       0.00000000
Si       0.68479250       6.34761500       1.03332000  F      243       0.00000000       0.00000000       0.00000000
Si      26.57311000       7.70957000      26.92136500  F      244       0.00000000       0.00000000       0.00000000
Si       2.04375000      10.43484250      26.92490750  F      245       0.00000000       0.00000000       0.00000000
Si       2.04647500       7.70929750       2.39554750  F      246       0.00000000       0.00000000       0.00000000
Si      26.57420000      10.43457000       2.39336750  F      247       0.00000000       0.00000000       0.00000000
Si       3.40734000       6.34788750      25.56159000  F      248       0.00000000       0.00000000       0.00000000
Si       6.12988750       9.07179750      25.56649500  F      249       0.00000000       0.00000000       0.00000000
Si       3.40706750       9.07234250       1.03495500  F      250       0.00000000       0.00000000       0.00000000
Si       6.13152250       6.34652500       1.03468250  F      251       0.00000000       0.00000000       0.00000000
Si       4.76847750       7.70875250      26.92490750  F      252       0.00000000       0.00000000       0.00000000
Si       7.49293250      10.43511500      26.92790500  F      253       0.00000000       0.00000000       0.00000000
Si       7.49375000       7.70848000       2.39500250  F      254       0.00000000       0.00000000       0.00000000
Si       4.76847750      10.43511500       2.39609250  F      255       0.00000000       0.00000000       0.00000000
Si       8.85706750       6.34570750      25.56486000  F      256       0.00000000       0.00000000       0.00000000
Si      11.58343000       9.07070750      25.56649500  F      257       0.00000000       0.00000000       0.00000000
Si       8.85761250       9.07234250       1.03686250  F      258       0.00000000       0.00000000       0.00000000
Si      11.58452000       6.34570750       1.03495500  F      259       0.00000000       0.00000000       0.00000000
Si      10.22011250       7.70875250      26.92599750  F      260       0.00000000       0.00000000       0.00000000
Si      12.94783750      10.43593250      26.92463500  F      261       0.00000000       0.00000000       0.00000000
Si      12.94892750       7.70766250       2.39445750  F      262       0.00000000       0.00000000       0.00000000
Si      10.22174750      10.43538750       2.39691000  F      263       0.00000000       0.00000000       0.00000000
Si      14.31251750       6.34352750      25.56567750  F      264       0.00000000       0.00000000       0.00000000
Si      17.03860750       9.07179750      25.56377000  F      265       0.00000000       0.00000000       0.00000000
Si      14.31170000       9.07207000       1.03441000  F      266       0.00000000       0.00000000       0.00000000
Si      17.03942500       6.34461750       1.03141250  F      267       0.00000000       0.00000000       0.00000000
Si      15.67529000       7.70875250      26.92381750  F      268       0.00000000       0.00000000       0.00000000
Si      18.40165250      10.43511500      26.92381750  F      269       0.00000000       0.00000000       0.00000000
Si      18.40519500       7.70521000       2.39009750  F      270       0.00000000       0.00000000       0.00000000
Si      15.67638000      10.43402500       2.39500250  F      271       0.00000000       0.00000000       0.00000000
Si      19.76333500       6.34707000      25.55941000  F      272       0.00000000       0.00000000       0.00000000
Si      22.48833500       9.07234250      25.55995500  F      273       0.00000000       0.00000000       0.00000000
Si      19.76578750       9.07098000       1.03141250  F      274       0.00000000       0.00000000       0.00000000
Si      22.48915250       6.34652500       1.03086750  F      275       0.00000000       0.00000000       0.00000000
Si      21.12665250       7.70902500      26.92000250  F      276       0.00000000       0.00000000       0.00000000
Si      23.85029000      10.43511500      26.92109250  F      277       0.00000000       0.00000000       0.00000000
Si      23.85247000       7.70766250       2.39146000  F      278       0.00000000       0.00000000       0.00000000
Si      21.13074000      10.43293500       2.39064250  F      279       0.00000000       0.00000000       0.00000000
Si      25.21061000      11.79925000      25.56131750  F      280       0.00000000       0.00000000       0.00000000
Si       0.67907000      14.52779250      25.56595000  F      281       0.00000000       0.00000000       0.00000000
Si      25.21170000      14.52697500       1.03359250  F      282       0.00000000       0.00000000       0.00000000
Si       0.68288500      11.79925000       1.03359250  F      283       0.00000000       0.00000000       0.00000000
Si      26.57038500      13.16202250      26.92381750  F      284       0.00000000       0.00000000       0.00000000
Si       2.04157000      15.89002000      26.92736000  F      285       0.00000000       0.00000000       0.00000000
Si       2.04293250      13.16256750       2.39473000  F      286       0.00000000       0.00000000       0.00000000
Si      26.57147500      15.88974750       2.39582000  F      287       0.00000000       0.00000000       0.00000000
Si       3.40298000      11.79952250      25.56704000  F      288       0.00000000       0.00000000       0.00000000
Si       6.12471000      14.52888250      25.57140000  F      289       0.00000000       0.00000000       0.00000000
Si       3.40488750      14.52724750       1.03740750  F      290       0.00000000       0.00000000       0.00000000
Si       6.13125000      11.79952250       1.03795250  F      291       0.00000000       0.00000000       0.00000000
Si       4.76575250      13.16229500      26.92899500  F      292       0.00000000       0.00000000       0.00000000
Si       7.49266000      15.89056500      26.92899500  F      293       0.00000000       0.00000000       0.00000000
Si       7.49538500      13.16229500       2.39854500  F      294       0.00000000       0.00000000       0.00000000
Si       4.76820500      15.89002000       2.39745500  F      295       0.00000000       0.00000000       0.00000000
Si       8.85379750      11.79925000      25.56867500  F      296       0.00000000       0.00000000       0.00000000
Si      11.58234000      14.52806500      25.56513250  F      297       0.00000000       0.00000000       0.00000000
Si       8.85788500      14.52643000       1.03795250  F      298       0.00000000       0.00000000       0.00000000
Si      11.58479250      11.79952250       1.03631750  F      299       0.00000000       0.00000000       0.00000000
Si      10.22038500      13.16311250      26.92627000  F      300       0.00000000       0.00000000       0.00000000
Si      12.94729250      15.89002000      26.92627000  F      301       0.00000000       0.00000000       0.00000000
Si      12.94892750      13.16147750       2.39800000  F      302       0.00000000       0.00000000       0.00000000
Si      10.22174750      15.88865750       2.39909000  F      303       0.00000000       0.00000000       0.00000000
Si      14.31061000      11.79979500      25.56295250  F      304       0.00000000       0.00000000       0.00000000
Si      17.03969750      14.52697500      25.56649500  F      305       0.00000000       0.00000000       0.00000000
Si      14.31115500      14.52561250       1.03631750  F      306       0.00000000       0.00000000       0.00000000
Si      17.03833500      11.79870500       1.03441000  F      307       0.00000000       0.00000000       0.00000000
Si      15.67447250      13.16256750      26.92463500  F      308       0.00000000       0.00000000       0.00000000
Si      18.40192500      15.89029250      26.92599750  F      309       0.00000000       0.00000000       0.00000000
Si      18.40274250      13.16147750       2.39445750  F      310       0.00000000       0.00000000       0.00000000
Si      15.67501750      15.88865750       2.39691000  F      311       0.00000000       0.00000000       0.00000000
Si      19.76687750      11.79816000      25.56567750  F      312       0.00000000       0.00000000       0.00000000
Si      22.48969750      14.52615750      25.56377000  F      313       0.00000000       0.00000000       0.00000000
Si      19.76497000      14.52588500       1.03495500  F      314       0.00000000       0.00000000       0.00000000
Si      22.49106000      11.79870500       1.03250250  F      315       0.00000000       0.00000000       0.00000000
Si      21.12801500      13.16284000      26.92463500  F      316       0.00000000       0.00000000       0.00000000
Si      23.84974500      15.89002000      26.92409000  F      317       0.00000000       0.00000000       0.00000000
Si      23.85383250      13.16175000       2.39227750  F      318       0.00000000       0.00000000       0.00000000
Si      21.12801500      15.88974750       2.39418500  F      319       0.00000000       0.00000000       0.00000000
Si      25.20897500      17.25361000      25.56268000  F      320       0.00000000       0.00000000       0.00000000
Si       0.68070500      19.98024500      25.56431500  F      321       0.00000000       0.00000000       0.00000000
Si      25.20952000      19.97861000       1.03522750  F      322       0.00000000       0.00000000       0.00000000
Si       0.68179500      17.25388250       1.03659000  F      323       0.00000000       0.00000000       0.00000000
Si      26.57038500      18.61611000      26.92436250  F      324       0.00000000       0.00000000       0.00000000
Si       2.04375000      21.34192750      26.92518000  F      325       0.00000000       0.00000000       0.00000000
Si       2.04429500      18.61611000       2.39745500  F      326       0.00000000       0.00000000       0.00000000
Si      26.57174750      21.34056500       2.39663750  F      327       0.00000000       0.00000000       0.00000000
Si       3.40080000      17.25660750      25.56922000  F      328       0.00000000       0.00000000       0.00000000
Si       6.12634500      19.98406000      25.57031000  F      329       0.00000000       0.00000000       0.00000000
Si       3.40516000      19.98024500       1.03768000  F      330       0.00000000       0.00000000       0.00000000
Si       6.13016000      17.25415500       1.03795250  F      331       0.00000000       0.00000000       0.00000000
Si       4.76629750      18.61774500      26.92872250  F      332       0.00000000       0.00000000       0.00000000
Si       7.49293250      21.34438000      26.92872250  F      333       0.00000000       0.00000000       0.00000000
Si       7.49347750      18.61692750       2.39772750  F      334       0.00000000       0.00000000       0.00000000
Si       4.76847750      21.34220000       2.39772750  F      335       0.00000000       0.00000000       0.00000000
Si       8.85379750      17.25688000      25.56976500  F      336       0.00000000       0.00000000       0.00000000
Si      11.58152250      19.98569500      25.57140000  F      337       0.00000000       0.00000000       0.00000000
Si       8.85625000      19.98024500       1.03795250  F      338       0.00000000       0.00000000       0.00000000
Si      11.58397500      17.25279250       1.03795250  F      339       0.00000000       0.00000000       0.00000000
Si      10.21984000      18.61774500      26.92899500  F      340       0.00000000       0.00000000       0.00000000
Si      12.94811000      21.34465250      26.92899500  F      341       0.00000000       0.00000000       0.00000000
Si      12.94811000      18.61529250       2.39854500  F      342       0.00000000       0.00000000       0.00000000
Si      10.22038500      21.34220000       2.39745500  F      343       0.00000000       0.00000000       0.00000000
Si      14.31115500      17.25660750      25.56867500  F      344       0.00000000       0.00000000       0.00000000
Si      17.03860750      19.98051750      25.56649500  F      345       0.00000000       0.00000000       0.00000000
Si      14.31088250      19.97915500       1.03795250  F      346       0.00000000       0.00000000       0.00000000
Si      17.03806250      17.25279250       1.03686250  F      347       0.00000000       0.00000000       0.00000000
Si      15.67529000      18.61774500      26.92790500  F      348       0.00000000       0.00000000       0.00000000
Si      18.40165250      21.34220000      26.92490750  F      349       0.00000000       0.00000000       0.00000000
Si      18.40192500      18.61665500       2.39500250  F      350       0.00000000       0.00000000       0.00000000
Si      15.67529000      21.34220000       2.39609250  F      351       0.00000000       0.00000000       0.00000000
Si      19.76469750      17.25333750      25.56486000  F      352       0.00000000       0.00000000       0.00000000
Si      22.48642750      19.97861000      25.56186250  F      353       0.00000000       0.00000000       0.00000000
Si      19.76388000      19.97888250       1.03468250  F      354       0.00000000       0.00000000       0.00000000
Si      22.48806250      17.25333750       1.03413750  F      355       0.00000000       0.00000000       0.00000000
Si      21.12610750      18.61638250      26.92436250  F      356       0.00000000       0.00000000       0.00000000
Si      23.84811000      21.34056500      26.92327250  F      357       0.00000000       0.00000000       0.00000000
Si      23.84892750      18.61583750       2.39609250  F      358       0.00000000       0.00000000       0.00000000
Si      21.12556250      21.34056500       2.39582000  F      359       0.00000000       0.00000000       0.00000000
Si      25.20897500      22.70361000      25.56186250  F      360       0.00000000       0.00000000       0.00000000
Si       0.68234000      25.42806500      25.56213500  F      361       0.00000000       0.00000000       0.00000000
Si      25.21006500      25.42643000       1.03413750  F      362       0.00000000       0.00000000       0.00000000
Si       0.68261250      22.70361000       1.03577250  F      363       0.00000000       0.00000000       0.00000000
Si      26.57147500      24.06502000      26.92300000  F      364       0.00000000       0.00000000       0.00000000
Si       2.04538500      26.78893000      26.92300000  F      365       0.00000000       0.00000000       0.00000000
Si       2.04538500      24.06502000       2.39663750  F      366       0.00000000       0.00000000       0.00000000
Si      26.57283750      26.78756750       2.39527500  F      367       0.00000000       0.00000000       0.00000000
Si       3.40461500      22.70606250      25.56486000  F      368       0.00000000       0.00000000       0.00000000
Si       6.13016000      25.42997250      25.56431500  F      369       0.00000000       0.00000000       0.00000000
Si       3.40679500      25.42779250       1.03577250  F      370       0.00000000       0.00000000       0.00000000
Si       6.13016000      22.70524500       1.03768000  F      371       0.00000000       0.00000000       0.00000000
Si       4.76875000      24.06665500      26.92518000  F      372       0.00000000       0.00000000       0.00000000
Si       7.49429500      26.79002000      26.92436250  F      373       0.00000000       0.00000000       0.00000000
Si       7.49429500      24.06611000       2.39745500  F      374       0.00000000       0.00000000       0.00000000
Si       4.76984000      26.78865750       2.39663750  F      375       0.00000000       0.00000000       0.00000000
Si       8.85407000      22.70960500      25.56922000  F      376       0.00000000       0.00000000       0.00000000
Si      11.58288500      25.43160750      25.56595000  F      377       0.00000000       0.00000000       0.00000000
Si       8.85652250      25.42861000       1.03659000  F      378       0.00000000       0.00000000       0.00000000
Si      11.58343000      22.70551750       1.03740750  F      379       0.00000000       0.00000000       0.00000000
Si      10.22038500      24.06883500      26.92736000  F      380       0.00000000       0.00000000       0.00000000
Si      12.94838250      26.79002000      26.92381750  F      381       0.00000000       0.00000000       0.00000000
Si      12.94783750      24.06774500       2.39473000  F      382       0.00000000       0.00000000       0.00000000
Si      10.22065750      26.78893000       2.39582000  F      383       0.00000000       0.00000000       0.00000000
Si      14.31088250      22.70742500      25.56704000  F      384       0.00000000       0.00000000       0.00000000
Si      17.03751750      25.42670250      25.56104500  F      385       0.00000000       0.00000000       0.00000000
Si      14.31142750      25.42752000       1.03359250  F      386       0.00000000       0.00000000       0.00000000
Si      17.03806250      22.70333750       1.03495500  F      387       0.00000000       0.00000000       0.00000000
Si      15.67583500      24.06665500      26.92490750  F      388       0.00000000       0.00000000       0.00000000
Si      18.40083500      26.78729500      26.92136500  F      389       0.00000000       0.00000000       0.00000000
Si      18.40110750      24.06393000       2.39554750  F      390       0.00000000       0.00000000       0.00000000
Si      15.67583500      26.78620500       2.39336750  F      391       0.00000000       0.00000000       0.00000000
Si      19.76251750      22.70306500      25.56159000  F      392       0.00000000       0.00000000       0.00000000
Si      22.48615500      25.42670250      25.56050000  F      393       0.00000000       0.00000000       0.00000000
Si      19.76279000      25.42561250       1.03332000  F      394       0.00000000       0.00000000       0.00000000
Si      22.48670000      22.70252000       1.03413750  F      395       0.00000000       0.00000000       0.00000000
Si      21.12501750      24.06447500      26.92218250  F      396       0.00000000       0.00000000       0.00000000
Si      23.84892750      26.78784000      26.92163750  F      397       0.00000000       0.00000000       0.00000000
Si      23.84920000      24.06393000       2.39527500  F      398       0.00000000       0.00000000       0.00000000
Si      21.12610750      26.78620500       2.39391250  F      399       0.00000000       0.00000000       0.00000000
Si      25.21170000       0.89870500       3.75641250  F      400       0.00000000       0.00000000       0.00000000
Si       0.68533750       3.62288750       3.75641250  F      401       0.00000000       0.00000000       0.00000000
Si      25.21388000       3.62043500       6.47950500  F      402       0.00000000       0.00000000       0.00000000
Si       0.68506500       0.89870500       6.48114000  F      403       0.00000000       0.00000000       0.00000000
Si      26.57447250       2.25984250       5.11782250  F      404       0.00000000       0.00000000       0.00000000
Si       2.04702000       4.98429750       5.11836750  F      405       0.00000000       0.00000000       0.00000000
Si       2.04674750       2.26038750       7.84282250  F      406       0.00000000       0.00000000       0.00000000
Si      26.57610750       4.98184500       7.84118750  F      407       0.00000000       0.00000000       0.00000000
Si       3.40788500       0.89979500       3.75750250  F      408       0.00000000       0.00000000       0.00000000
Si       6.13179500       3.62261500       3.75695750  F      409       0.00000000       0.00000000       0.00000000
Si       3.40788500       3.62234250       6.48059500  F      410       0.00000000       0.00000000       0.00000000
Si       6.13097750       0.89843250       6.48032250  F      411       0.00000000       0.00000000       0.00000000
Si       4.76984000       2.26093250       5.11891250  F      412       0.00000000       0.00000000       0.00000000
Si       7.49402250       4.98320750       5.11782250  F      413       0.00000000       0.00000000       0.00000000
Si       7.49375000       2.25711750       7.84227750  F      414       0.00000000       0.00000000       0.00000000
Si       4.76902250       4.98320750       7.84282250  F      415       0.00000000       0.00000000       0.00000000
Si       8.85679500       0.89870500       3.75641250  F      416       0.00000000       0.00000000       0.00000000
Si      11.58288500       3.61525750       3.75069000  F      417       0.00000000       0.00000000       0.00000000
Si       8.85488750       3.61662000       6.47732500  F      418       0.00000000       0.00000000       0.00000000
Si      11.58370250       0.89489000       6.47841500  F      419       0.00000000       0.00000000       0.00000000
Si      10.22065750       2.25739000       5.11700500  F      420       0.00000000       0.00000000       0.00000000
Si      12.95110750       4.97094500       5.10610500  F      421       0.00000000       0.00000000       0.00000000
Si      12.94974500       2.25275750       7.83737250  F      422       0.00000000       0.00000000       0.00000000
Si      10.21902250       4.97448750       7.83601000  F      423       0.00000000       0.00000000       0.00000000
Si      14.31170000       0.89489000       3.75314250  F      424       0.00000000       0.00000000       0.00000000
Si      17.04024250       3.61716500       3.75178000  F      425       0.00000000       0.00000000       0.00000000
Si      14.31306250       3.60871750       6.46915000  F      426       0.00000000       0.00000000       0.00000000
Si      17.03997000       0.89380000       6.47732500  F      427       0.00000000       0.00000000       0.00000000
Si      15.67856000       2.25221250       5.11155500  F      428       0.00000000       0.00000000       0.00000000
Si      18.40819250       4.97585000       5.10992000  F      429       0.00000000       0.00000000       0.00000000
Si      18.40710250       2.25112250       7.83737250  F      430       0.00000000       0.00000000       0.00000000
Si      15.68700750       4.96113500       7.82320250  F      431       0.00000000       0.00000000       0.00000000
Si      19.76442500       0.89707000       3.75450500  F      432       0.00000000       0.00000000       0.00000000
Si      22.48969750       3.62070750       3.75423250  F      433       0.00000000       0.00000000       0.00000000
Si      19.76824000       3.61607500       6.47623500  F      434       0.00000000       0.00000000       0.00000000
Si      22.48997000       0.89652500       6.47950500  F      435       0.00000000       0.00000000       0.00000000
Si      21.12910500       2.25684500       5.11509750  F      436       0.00000000       0.00000000       0.00000000
Si      23.85383250       4.98130000       5.11509750  F      437       0.00000000       0.00000000       0.00000000
Si      23.85328750       2.25711750       7.84091500  F      438       0.00000000       0.00000000       0.00000000
Si      21.13482750       4.97557750       7.83628250  F      439       0.00000000       0.00000000       0.00000000
Si      25.21333500       6.34598000       3.75450500  F      440       0.00000000       0.00000000       0.00000000
Si       0.68506500       9.07207000       3.75559500  F      441       0.00000000       0.00000000       0.00000000
Si      25.21660500       9.07043500       6.47732500  F      442       0.00000000       0.00000000       0.00000000
Si       0.68533750       6.34570750       6.47950500  F      443       0.00000000       0.00000000       0.00000000
Si      26.57556250       7.70793500       5.11618750  F      444       0.00000000       0.00000000       0.00000000
Si       2.04429500      10.43538750       5.11782250  F      445       0.00000000       0.00000000       0.00000000
Si       2.04429500       7.70848000       7.84227750  F      446       0.00000000       0.00000000       0.00000000
Si      26.57420000      10.43457000       7.84227750  F      447       0.00000000       0.00000000       0.00000000
Si       3.40815750       6.34679750       3.75695750  F      448       0.00000000       0.00000000       0.00000000
Si       6.13070500       9.07070750       3.75559500  F      449       0.00000000       0.00000000       0.00000000
Si       3.40434250       9.07043500       6.47868750  F      450       0.00000000       0.00000000       0.00000000
Si       6.13070500       6.34516250       6.47950500  F      451       0.00000000       0.00000000       0.00000000
Si       4.76902250       7.70902500       5.11836750  F      452       0.00000000       0.00000000       0.00000000
Si       7.49266000      10.43293500       5.11509750  F      453       0.00000000       0.00000000       0.00000000
Si       7.49238750       7.70630000       7.84009750  F      454       0.00000000       0.00000000       0.00000000
Si       4.76302750      10.43375250       7.83900750  F      455       0.00000000       0.00000000       0.00000000
Si       8.85570500       6.34407250       3.75396000  F      456       0.00000000       0.00000000       0.00000000
Si      11.58506500       9.06989000       3.75559500  F      457       0.00000000       0.00000000       0.00000000
Si       8.85597750       9.06689250       6.47405500  F      458       0.00000000       0.00000000       0.00000000
Si      11.58043250       6.32527000       6.46015750  F      459       0.00000000       0.00000000       0.00000000
Si      10.21984000       7.70384750       5.11237250  F      460       0.00000000       0.00000000       0.00000000
Si      12.95110750      10.42993750       5.11646000  F      461       0.00000000       0.00000000       0.00000000
Si      12.95683000       7.67223750       7.80794250  F      462       0.00000000       0.00000000       0.00000000
Si      10.21875000      10.42557750       7.83573750  F      463       0.00000000       0.00000000       0.00000000
Si      14.31333500       6.33944000       3.74932750  F      464       0.00000000       0.00000000       0.00000000
Si      17.04324000       9.06716500       3.74905500  F      465       0.00000000       0.00000000       0.00000000
Si      14.31933000       9.05381250       6.46206500  F      466       0.00000000       0.00000000       0.00000000
Si      17.04651000       6.33426250       6.46806000  F      467       0.00000000       0.00000000       0.00000000
Si      15.68346500       7.69703500       5.10528750  F      468       0.00000000       0.00000000       0.00000000
Si      18.41337000      10.42694000       5.10528750  F      469       0.00000000       0.00000000       0.00000000
Si      18.41827500       7.69213000       7.82483750  F      470       0.00000000       0.00000000       0.00000000
Si      15.69927000      10.41140750       7.81094000  F      471       0.00000000       0.00000000       0.00000000
Si      19.76796750       6.34243750       3.75069000  F      472       0.00000000       0.00000000       0.00000000
Si      22.49324000       9.07043500       3.75178000  F      473       0.00000000       0.00000000       0.00000000
Si      19.77641500       9.06389500       6.46806000  F      474       0.00000000       0.00000000       0.00000000
Si      22.49433000       6.34216500       6.47623500  F      475       0.00000000       0.00000000       0.00000000
Si      21.13455500       7.70221250       5.10992000  F      476       0.00000000       0.00000000       0.00000000
Si      23.85819250      10.43211750       5.11155500  F      477       0.00000000       0.00000000       0.00000000
Si      23.85928250       7.70330250       7.83737250  F      478       0.00000000       0.00000000       0.00000000
Si      21.14927000      10.42339750       7.82320250  F      479       0.00000000       0.00000000       0.00000000
Si      25.21578750      11.79897750       3.75314250  F      480       0.00000000       0.00000000       0.00000000
Si       0.68261250      14.52643000       3.75559500  F      481       0.00000000       0.00000000       0.00000000
Si      25.21578750      14.52670250       6.47841500  F      482       0.00000000       0.00000000       0.00000000
Si       0.68370250      11.79843250       6.48005000  F      483       0.00000000       0.00000000       0.00000000
Si      26.57447250      13.16202250       5.11700500  F      484       0.00000000       0.00000000       0.00000000
Si       2.04184250      15.89056500       5.11646000  F      485       0.00000000       0.00000000       0.00000000
Si       2.04266000      13.16284000       7.84173250  F      486       0.00000000       0.00000000       0.00000000
Si      26.57420000      15.88974750       7.84336750  F      487       0.00000000       0.00000000       0.00000000
Si       3.40352500      11.79816000       3.75396000  F      488       0.00000000       0.00000000       0.00000000
Si       6.13070500      14.52643000       3.75723000  F      489       0.00000000       0.00000000       0.00000000
Si       3.40052750      14.52588500       6.47541750  F      490       0.00000000       0.00000000       0.00000000
Si       6.11926000      11.79434500       6.46806000  F      491       0.00000000       0.00000000       0.00000000
Si       4.76221000      13.16338500       5.11237250  F      492       0.00000000       0.00000000       0.00000000
Si       7.49293250      15.89111000       5.11727750  F      493       0.00000000       0.00000000       0.00000000
Si       7.47140500      13.16583750       7.82075000  F      494       0.00000000       0.00000000       0.00000000
Si       4.75621500      15.89519750       7.83355750  F      495       0.00000000       0.00000000       0.00000000
Si       8.85870250      11.79816000       3.75886500  F      496       0.00000000       0.00000000       0.00000000
Si      11.58588250      14.52479500       3.76022750  F      497       0.00000000       0.00000000       0.00000000
Si       8.85461500      14.52697500       6.47705250  F      498       0.00000000       0.00000000       0.00000000
Si       7.46023250      15.90228250      10.54384250  F      499       0.00000000       0.00000000       0.00000000
Si      10.22256500      13.16038750       5.12136500  F      500       0.00000000       0.00000000       0.00000000
Si      12.95001750      15.88811250       5.12136500  F      501       0.00000000       0.00000000       0.00000000
Si      10.21902250      15.89138250       7.83791750  F      502       0.00000000       0.00000000       0.00000000
Si      14.31769500      14.52343250       6.47950500  F      503       0.00000000       0.00000000       0.00000000
Si      14.31360750      11.79679750       3.75723000  F      504       0.00000000       0.00000000       0.00000000
Si      17.04051500      14.52534000       3.75559500  F      505       0.00000000       0.00000000       0.00000000
Si      11.58724500      11.79271000       6.47950500  F      506       0.00000000       0.00000000       0.00000000
Si      17.05659250      11.79134750       6.46206500  F      507       0.00000000       0.00000000       0.00000000
Si      15.68046750      13.15929750       5.11646000  F      508       0.00000000       0.00000000       0.00000000
Si      18.40683000      15.89056500       5.11237250  F      509       0.00000000       0.00000000       0.00000000
Si      18.43816750      13.15357500       7.80794250  F      510       0.00000000       0.00000000       0.00000000
Si      15.68482750      15.89165500       7.83573750  F      511       0.00000000       0.00000000       0.00000000
Si      19.77096500      11.79734250       3.74932750  F      512       0.00000000       0.00000000       0.00000000
Si      22.49542000      14.52752000       3.75069000  F      513       0.00000000       0.00000000       0.00000000
Si      19.78513500      14.52997250       6.46015750  F      514       0.00000000       0.00000000       0.00000000
Si      22.50196000      11.79734250       6.46915000  F      515       0.00000000       0.00000000       0.00000000
Si      21.13946000      13.15929750       5.10610500  F      516       0.00000000       0.00000000       0.00000000
Si      23.85328750      15.88974750       5.11700500  F      517       0.00000000       0.00000000       0.00000000
Si      23.85792000      13.16066000       7.83737250  F      518       0.00000000       0.00000000       0.00000000
Si      21.13591750      15.89138250       7.83601000  F      519       0.00000000       0.00000000       0.00000000
Si      25.21170000      17.25361000       3.75641250  F      520       0.00000000       0.00000000       0.00000000
Si       0.68343000      19.97888250       3.75832000  F      521       0.00000000       0.00000000       0.00000000
Si      25.21197250      19.97942750       6.48032250  F      522       0.00000000       0.00000000       0.00000000
Si       0.68234000      17.25333750       6.47977750  F      523       0.00000000       0.00000000       0.00000000
Si      26.57202000      18.61611000       5.11864000  F      524       0.00000000       0.00000000       0.00000000
Si       2.04511250      21.34138250       5.11945750  F      525       0.00000000       0.00000000       0.00000000
Si       2.04075250      18.61883500       7.84118750  F      526       0.00000000       0.00000000       0.00000000
Si      26.57174750      21.34192750       7.84282250  F      527       0.00000000       0.00000000       0.00000000
Si       3.40625000      17.25333750       3.75777500  F      528       0.00000000       0.00000000       0.00000000
Si       6.13070500      19.97970000       3.75777500  F      529       0.00000000       0.00000000       0.00000000
Si       3.40597750      19.97942750       6.48114000  F      530       0.00000000       0.00000000       0.00000000
Si       6.12852500      17.25470000       6.47787000  F      531       0.00000000       0.00000000       0.00000000
Si       4.76766000      18.61774500       5.11809500  F      532       0.00000000       0.00000000       0.00000000
Si       7.49293250      21.34301750       5.11809500  F      533       0.00000000       0.00000000       0.00000000
Si       7.49048000      18.61992500       7.83846250  F      534       0.00000000       0.00000000       0.00000000
Si       4.76738750      21.34329000       7.84255000  F      535       0.00000000       0.00000000       0.00000000
Si       8.85679500      17.25361000       3.75695750  F      536       0.00000000       0.00000000       0.00000000
Si      11.58397500      19.97970000       3.75723000  F      537       0.00000000       0.00000000       0.00000000
Si       8.85570500      19.98215250       6.47787000  F      538       0.00000000       0.00000000       0.00000000
Si      12.95846500      13.15194000       7.83873500  F      539       0.00000000       0.00000000       0.00000000
Si      10.21929500      18.61747250       5.11727750  F      540       0.00000000       0.00000000       0.00000000
Si      12.94702000      21.34819500       5.11237250  F      541       0.00000000       0.00000000       0.00000000
Si      12.94456750      18.63927250       7.82075000  F      542       0.00000000       0.00000000       0.00000000
Si      10.21520750      21.35446250       7.83355750  F      543       0.00000000       0.00000000       0.00000000
Si      14.31224500      17.25170250       3.75886500  F      544       0.00000000       0.00000000       0.00000000
Si      17.03969750      19.97970000       3.75559500  F      545       0.00000000       0.00000000       0.00000000
Si      14.31606000      19.99114500       6.46806000  F      546       0.00000000       0.00000000       0.00000000
Si      17.04351250      17.25442750       6.47405500  F      547       0.00000000       0.00000000       0.00000000
Si      15.67747000      18.61801750       5.11509750  F      548       0.00000000       0.00000000       0.00000000
Si      18.40165250      21.34138250       5.11836750  F      549       0.00000000       0.00000000       0.00000000
Si      18.40410500      18.61829000       7.84009750  F      550       0.00000000       0.00000000       0.00000000
Si      15.67665250      21.34737750       7.83900750  F      551       0.00000000       0.00000000       0.00000000
Si      19.76633250      17.25470000       3.75396000  F      552       0.00000000       0.00000000       0.00000000
Si      22.48779000      19.97888250       3.75695750  F      553       0.00000000       0.00000000       0.00000000
Si      19.76551500      19.97970000       6.47950500  F      554       0.00000000       0.00000000       0.00000000
Si      22.49378500      17.25551750       6.47732500  F      555       0.00000000       0.00000000       0.00000000
Si      21.12747000      18.61638250       5.11782250  F      556       0.00000000       0.00000000       0.00000000
Si      23.84947250      21.34056500       5.11891250  F      557       0.00000000       0.00000000       0.00000000
Si      23.85328750      18.61692750       7.84227750  F      558       0.00000000       0.00000000       0.00000000
Si      21.12719750      21.34165500       7.84282250  F      559       0.00000000       0.00000000       0.00000000
Si      25.21061000      22.70252000       3.75750250  F      560       0.00000000       0.00000000       0.00000000
Si       0.68397500      25.42643000       3.75777500  F      561       0.00000000       0.00000000       0.00000000
Si      25.21170000      25.42534000       6.48114000  F      562       0.00000000       0.00000000       0.00000000
Si       0.68397500      22.70306500       6.48141250  F      563       0.00000000       0.00000000       0.00000000
Si      26.57256500      24.06420250       5.11918500  F      564       0.00000000       0.00000000       0.00000000
Si       2.04620250      26.78784000       5.11918500  F      565       0.00000000       0.00000000       0.00000000
Si       2.04511250      24.06529250       7.84309500  F      566       0.00000000       0.00000000       0.00000000
Si      26.57365500      26.78675000       7.84282250  F      567       0.00000000       0.00000000       0.00000000
Si       3.40679500      22.70361000       3.75859250  F      568       0.00000000       0.00000000       0.00000000
Si       6.13152250      25.42697500       3.75832000  F      569       0.00000000       0.00000000       0.00000000
Si       3.40734000      25.42643000       6.48141250  F      570       0.00000000       0.00000000       0.00000000
Si       6.13097750      22.70442750       6.48114000  F      571       0.00000000       0.00000000       0.00000000
Si       4.76902250      24.06556500       5.11945750  F      572       0.00000000       0.00000000       0.00000000
Si       7.49429500      26.78838500       5.11864000  F      573       0.00000000       0.00000000       0.00000000
Si       7.49184250      24.06965250       7.84118750  F      574       0.00000000       0.00000000       0.00000000
Si       4.76847750      26.78893000       7.84282250  F      575       0.00000000       0.00000000       0.00000000
Si       8.85706750      22.70442750       3.75777500  F      576       0.00000000       0.00000000       0.00000000
Si      11.58397500      25.42779250       3.75559500  F      577       0.00000000       0.00000000       0.00000000
Si       8.85706750      25.42806500       6.47977750  F      578       0.00000000       0.00000000       0.00000000
Si      11.58452000      22.70987750       6.47541750  F      579       0.00000000       0.00000000       0.00000000
Si      10.21984000      24.06856250       5.11646000  F      580       0.00000000       0.00000000       0.00000000
Si      12.94838250      26.78620500       5.11700500  F      581       0.00000000       0.00000000       0.00000000
Si      12.94756500      24.06774500       7.84173250  F      582       0.00000000       0.00000000       0.00000000
Si      10.22093000      26.78620500       7.84336750  F      583       0.00000000       0.00000000       0.00000000
Si      14.31224500      22.70715250       3.75396000  F      584       0.00000000       0.00000000       0.00000000
Si      17.03833500      25.42561250       3.75559500  F      585       0.00000000       0.00000000       0.00000000
Si      14.31197250      25.42670250       6.48005000  F      586       0.00000000       0.00000000       0.00000000
Si      17.03997000      22.70633500       6.47868750  F      587       0.00000000       0.00000000       0.00000000
Si      15.67529000      24.06611000       5.11782250  F      588       0.00000000       0.00000000       0.00000000
Si      18.40274250      26.78484250       5.11618750  F      589       0.00000000       0.00000000       0.00000000
Si      18.40219750      24.06638250       7.84227750  F      590       0.00000000       0.00000000       0.00000000
Si      15.67583500      26.78620500       7.84227750  F      591       0.00000000       0.00000000       0.00000000
Si      19.76360750      22.70252000       3.75695750  F      592       0.00000000       0.00000000       0.00000000
Si      22.48779000      25.42506750       3.75641250  F      593       0.00000000       0.00000000       0.00000000
Si      19.76497000      25.42506750       6.47950500  F      594       0.00000000       0.00000000       0.00000000
Si      22.48833500      22.70252000       6.48059500  F      595       0.00000000       0.00000000       0.00000000
Si      21.12610750      24.06338500       5.11836750  F      596       0.00000000       0.00000000       0.00000000
Si      23.85083500      26.78593250       5.11782250  F      597       0.00000000       0.00000000       0.00000000
Si      23.85001750      24.06365750       7.84282250  F      598       0.00000000       0.00000000       0.00000000
Si      21.12856000      26.78429750       7.84118750  F      599       0.00000000       0.00000000       0.00000000
Si      25.21333500       0.89734250       9.20559500  F      600       0.00000000       0.00000000       0.00000000
Si       0.68533750       3.62098000       9.20532250  F      601       0.00000000       0.00000000       0.00000000
Si      25.21606000       3.61825500      11.93223000  F      602       0.00000000       0.00000000       0.00000000
Si       0.68370250       0.89788750      11.93223000  F      603       0.00000000       0.00000000       0.00000000
Si      26.57501750       2.25848000      10.56809500  F      604       0.00000000       0.00000000       0.00000000
Si       2.04456750       4.98293500      10.56891250  F      605       0.00000000       0.00000000       0.00000000
Si       2.04293250       2.25820750      13.29663750  F      606       0.00000000       0.00000000       0.00000000
Si      26.57392750       4.98293500      13.29582000  F      607       0.00000000       0.00000000       0.00000000
Si       3.40679500       0.89870500       9.20559500  F      608       0.00000000       0.00000000       0.00000000
Si       6.12934250       3.61771000       9.20341500  F      609       0.00000000       0.00000000       0.00000000
Si       3.40216250       3.61689250      11.93114000  F      610       0.00000000       0.00000000       0.00000000
Si       6.13070500       0.89816000      11.93250250  F      611       0.00000000       0.00000000       0.00000000
Si       4.76793250       2.25848000      10.56891250  F      612       0.00000000       0.00000000       0.00000000
Si       7.49048000       4.97666750      10.56537000  F      613       0.00000000       0.00000000       0.00000000
Si       7.49293250       2.25793500      13.29554750  F      614       0.00000000       0.00000000       0.00000000
Si       4.75948500       4.97448750      13.29691000  F      615       0.00000000       0.00000000       0.00000000
Si       8.85679500       0.89625250       9.20532250  F      616       0.00000000       0.00000000       0.00000000
Si      11.58261250       3.61035250       9.19660250  F      617       0.00000000       0.00000000       0.00000000
Si       8.85488750       3.61580250      11.92841500  F      618       0.00000000       0.00000000       0.00000000
Si      11.58479250       0.89843250      11.93250250  F      619       0.00000000       0.00000000       0.00000000
Si      10.22038500       2.25575500      10.56673250  F      620       0.00000000       0.00000000       0.00000000
Si      12.95274250       4.96549500      10.55147250  F      621       0.00000000       0.00000000       0.00000000
Si      12.94947250       2.26011500      13.29445750  F      622       0.00000000       0.00000000       0.00000000
Si      10.21820500       4.97585000      13.28900750  F      623       0.00000000       0.00000000       0.00000000
Si      14.31224500       0.89570750       9.20505000  F      624       0.00000000       0.00000000       0.00000000
Si      17.04542000       3.60817250       9.19796500  F      625       0.00000000       0.00000000       0.00000000
Si      14.31578750       3.61689250      11.92868750  F      626       0.00000000       0.00000000       0.00000000
Si      17.03969750       0.89543500      11.93195750  F      627       0.00000000       0.00000000       0.00000000
Si      15.67856000       2.25521000      10.56646000  F      628       0.00000000       0.00000000       0.00000000
Si      18.41773000       4.96249750      10.55719500  F      629       0.00000000       0.00000000       0.00000000
Si      18.40519500       2.25521000      13.29418500  F      630       0.00000000       0.00000000       0.00000000
Si      15.68482750       4.97503250      13.29227750  F      631       0.00000000       0.00000000       0.00000000
Si      19.76742250       0.89325500       9.20396000  F      632       0.00000000       0.00000000       0.00000000
Si      22.49378500       3.61662000       9.20368750  F      633       0.00000000       0.00000000       0.00000000
Si      19.77505250       3.60844500      11.92923250  F      634       0.00000000       0.00000000       0.00000000
Si      22.49215000       0.89434500      11.93223000  F      635       0.00000000       0.00000000       0.00000000
Si      21.13319250       2.25166750      10.56482500  F      636       0.00000000       0.00000000       0.00000000
Si      23.85873750       4.97721250      10.56482500  F      637       0.00000000       0.00000000       0.00000000
Si      23.85683000       2.25384750      13.29445750  F      638       0.00000000       0.00000000       0.00000000
Si      21.14899750       4.96140750      13.28982500  F      639       0.00000000       0.00000000       0.00000000
Si      25.21715000       6.34325500       9.20396000  F      640       0.00000000       0.00000000       0.00000000
Si       0.68397500       9.07152500       9.20559500  F      641       0.00000000       0.00000000       0.00000000
Si      25.21497000       9.07070750      11.93195750  F      642       0.00000000       0.00000000       0.00000000
Si       0.68397500       6.34570750      11.93223000  F      643       0.00000000       0.00000000       0.00000000
Si      26.57447250       7.70793500      10.56836750  F      644       0.00000000       0.00000000       0.00000000
Si       2.04320500      10.43511500      10.56864000  F      645       0.00000000       0.00000000       0.00000000
Si       2.04347750       7.70820750      13.29609250  F      646       0.00000000       0.00000000       0.00000000
Si      26.57365500      10.43593250      13.29609250  F      647       0.00000000       0.00000000       0.00000000
Si       3.40407000       6.34434500       9.20396000  F      648       0.00000000       0.00000000       0.00000000
Si       6.12307500       9.06798250       9.20041750  F      649       0.00000000       0.00000000       0.00000000
Si       3.40298000       9.07043500      11.93059500  F      650       0.00000000       0.00000000       0.00000000
Si       6.11490000       6.32908500      11.92596250  F      651       0.00000000       0.00000000       0.00000000
Si       4.76302750       7.70548250      10.56646000  F      652       0.00000000       0.00000000       0.00000000
Si       7.48012500      10.43266250      10.55937500  F      653       0.00000000       0.00000000       0.00000000
Si       7.46541000       7.68095750      13.29636500  F      654       0.00000000       0.00000000       0.00000000
Si       4.76193750      10.43293500      13.29418500  F      655       0.00000000       0.00000000       0.00000000
Si       8.85325250       6.33535250       9.19796500  F      656       0.00000000       0.00000000       0.00000000
Si      11.58506500       9.02029500       9.15763500  F      657       0.00000000       0.00000000       0.00000000
Si       8.81047000       9.02901500      11.91588000  F      658       0.00000000       0.00000000       0.00000000
Si      11.58179500       6.32036500      11.90743250  F      659       0.00000000       0.00000000       0.00000000
Si      10.21602500       7.69431000      10.55583250  F      660       0.00000000       0.00000000       0.00000000
Si      13.03571854      10.30117838      10.45046366  T      661      -0.00593721       0.00746722       0.01763666
Si      12.96200750       7.66242750      13.25658000  F      662       0.00000000       0.00000000       0.00000000
Si      10.19967793      10.39966348      13.28719695  T      663      -0.06533110       0.05161512      -0.00981679
Si      14.31905750       6.31191750       9.17507500  F      664       0.00000000       0.00000000       0.00000000
Si      17.06122500       9.04918000       9.18216000  F      665       0.00000000       0.00000000       0.00000000
Si      14.36251946       8.98597702      11.88692473  T      666       0.00002019       0.00587053      -0.00626977
Si      17.06258750       6.31682250      11.91996750  F      667       0.00000000       0.00000000       0.00000000
Si      15.70526500       7.65289000      10.52558500  F      668       0.00000000       0.00000000       0.00000000
Si      18.45778750      10.40541250      10.52558500  F      669       0.00000000       0.00000000       0.00000000
Si      18.46187500       7.64853000      13.27974250  F      670       0.00000000       0.00000000       0.00000000
Si      15.84941349      10.26052192      13.19849146  T      671       0.01006873       0.05067449      -0.00112386
Si      19.77641500       6.33399000       9.19769250  F      672       0.00000000       0.00000000       0.00000000
Si      22.50223250       9.06498500       9.19796500  F      673       0.00000000       0.00000000       0.00000000
Si      19.79358250       9.04781750      11.91996750  F      674       0.00000000       0.00000000       0.00000000
Si      22.50196000       6.33535250      11.92923250  F      675       0.00000000       0.00000000       0.00000000
Si      21.14790750       7.69267500      10.55719500  F      676       0.00000000       0.00000000       0.00000000
Si      23.85519500      10.43211750      10.56646000  F      677       0.00000000       0.00000000       0.00000000
Si      23.85546750       7.70521000      13.29418500  F      678       0.00000000       0.00000000       0.00000000
Si      21.13537250      10.42557750      13.29227750  F      679       0.00000000       0.00000000       0.00000000
Si      25.21469750      11.79816000       9.20505000  F      680       0.00000000       0.00000000       0.00000000
Si       0.68397500      14.52615750       9.20695750  F      681       0.00000000       0.00000000       0.00000000
Si      25.21224500      14.52561250      11.93250250  F      682       0.00000000       0.00000000       0.00000000
Si       0.68506500      11.79979500      11.93359250  F      683       0.00000000       0.00000000       0.00000000
Si      26.57365500      13.16229500      10.57000250  F      684       0.00000000       0.00000000       0.00000000
Si       2.04347750      15.89111000      10.57000250  F      685       0.00000000       0.00000000       0.00000000
Si       2.04565750      13.16420250      13.29772750  F      686       0.00000000       0.00000000       0.00000000
Si      26.57202000      15.88947500      13.29691000  F      687       0.00000000       0.00000000       0.00000000
Si       3.40161750      11.79734250       9.20287000  F      688       0.00000000       0.00000000       0.00000000
Si       6.10999500      14.52752000       9.18870000  F      689       0.00000000       0.00000000       0.00000000
Si       3.40516000      14.52915500      11.93413750  F      690       0.00000000       0.00000000       0.00000000
Si       6.11708000      11.79816000      11.92405500  F      691       0.00000000       0.00000000       0.00000000
Si       4.75866750      13.16447500      10.56291750  F      692       0.00000000       0.00000000       0.00000000
Si      11.55231607      17.28152398      11.91165592  T      693      -0.03500180       0.00271991      -0.02356104
Si       7.46650000      13.16611000      13.28546500  F      694       0.00000000       0.00000000       0.00000000
Si       4.76248250      15.89737750      13.29909000  F      695       0.00000000       0.00000000       0.00000000
Si       8.82246000      11.79325500       9.16908000  F      696       0.00000000       0.00000000       0.00000000
Si      10.20812250      18.65044500      10.54384250  F      697       0.00000000       0.00000000       0.00000000
Si      10.98820962      13.44831927      13.09796450  T      698      -0.06787708       0.09296663      -0.06127166
Si      11.58969152      11.55019263      11.74684154  T      699       0.03240862      -0.03396606       0.06855548
Si      10.20451075      13.13707058      10.53803889  T      700      -0.02584945      -0.06783376       0.02561070
Si      12.96795420      15.89883058      10.53829403  T      701       0.01402512      -0.05022992      -0.01583860
Si      13.32353376      12.78097452      12.99213378  T      702      -0.14484337       0.06292196      -0.02820685
Si      10.05215461      16.04868051      13.29456271  T      703       0.00835770       0.09387185       0.00201394
Si      14.35038629      11.76517819       9.15099375  T      704      -0.00065017       0.00016784       0.00676360
Si      17.10553052      14.53640291       9.14308128  T      705      -0.00341454      -0.00155605       0.00096040
Si      14.54718400      14.50416761      11.73987035  T      706       0.07265932       0.12862822      -0.03438369
Si      17.12127527      11.75168375      11.88660529  T      707      -0.00207783      -0.00275422      -0.00121601
Si      15.82023103      13.08357480      10.43939260  T      708      -0.00458116       0.00971808       0.00042834
Si      18.41609500      15.89465250      10.55583250  F      709       0.00000000       0.00000000       0.00000000
Si      18.41713255      13.16002678      13.27693527  T      710       0.00561105       0.00054432       0.00853708
Si      15.68176122      15.88709270      13.29565554  T      711       0.00256031       0.06284168       0.02302239
Si      19.79848750      11.79134750       9.17507500  F      712       0.00000000       0.00000000       0.00000000
Si      22.50032500      14.52779250       9.19660250  F      713       0.00000000       0.00000000       0.00000000
Si      19.79004000      14.52861000      11.90743250  F      714       0.00000000       0.00000000       0.00000000
Si      22.49351250      11.79461750      11.92868750  F      715       0.00000000       0.00000000       0.00000000
Si      21.14518250      13.15766250      10.55147250  F      716       0.00000000       0.00000000       0.00000000
Si      23.85492250      15.89002000      10.56673250  F      717       0.00000000       0.00000000       0.00000000
Si      23.85029000      13.16093250      13.29445750  F      718       0.00000000       0.00000000       0.00000000
Si      21.13455500      15.89220000      13.28900750  F      719       0.00000000       0.00000000       0.00000000
Si      25.21415250      17.25388250       9.20532250  F      720       0.00000000       0.00000000       0.00000000
Si       0.68097750      19.98024500       9.20532250  F      721       0.00000000       0.00000000       0.00000000
Si      25.21224500      19.97970000      11.93250250  F      722       0.00000000       0.00000000       0.00000000
Si       0.68234000      17.25388250      11.93359250  F      723       0.00000000       0.00000000       0.00000000
Si      26.57283750      18.61665500      10.56945750  F      724       0.00000000       0.00000000       0.00000000
Si       2.03966250      21.34519750      10.56700500  F      725       0.00000000       0.00000000       0.00000000
Si       2.04102500      18.61965250      13.29636500  F      726       0.00000000       0.00000000       0.00000000
Si      26.57147500      21.34274500      13.29636500  F      727       0.00000000       0.00000000       0.00000000
Si       3.39862000      17.25606250       9.20232500  F      728       0.00000000       0.00000000       0.00000000
Si       6.12770750      19.98269750       9.20423250  F      729       0.00000000       0.00000000       0.00000000
Si       3.39725750      19.98624000      11.93114000  F      730       0.00000000       0.00000000       0.00000000
Si       6.11135750      17.26750750      11.92732500  F      731       0.00000000       0.00000000       0.00000000
Si       4.75512500      18.62428500      10.56319000  F      732       0.00000000       0.00000000       0.00000000
Si       7.48639250      21.35528000      10.56319000  F      733       0.00000000       0.00000000       0.00000000
Si       7.42181000      18.68886750      13.28301250  F      734       0.00000000       0.00000000       0.00000000
Si       4.74286250      21.36781500      13.29173250  F      735       0.00000000       0.00000000       0.00000000
Si       8.82069597      14.54983554      11.91360109  T      736      -0.05291701      -0.03040190       0.01545245
Si      11.58315750      20.00041000       9.18870000  F      737       0.00000000       0.00000000       0.00000000
Si       8.74343500      17.36697000      14.68666000  F      738       0.00000000       0.00000000       0.00000000
Si      13.68047922      14.08077521      15.16448818  T      739      -0.09674093      -0.09717522      -0.03113001
Si      12.63755868      15.10676374      13.09273041  T      740      -0.05727124      -0.00404385       0.04894574
Si      12.94593000      21.35173750      10.56291750  F      741       0.00000000       0.00000000       0.00000000
Si      12.94488060      18.61820848      13.28913257  T      742      -0.00292348       0.00966755      -0.00930545
Si      10.21302750      21.34792250      13.29909000  F      743       0.00000000       0.00000000       0.00000000
Si      14.31807855      17.28119949       9.17944884  T      744      -0.00639150       0.00092826       0.00472878
Si      17.04242250      19.98733000       9.20041750  F      745       0.00000000       0.00000000       0.00000000
Si      14.31224500      19.99332500      11.92405500  F      746       0.00000000       0.00000000       0.00000000
Si      17.05217713      17.27178043      11.93462721  T      747      -0.00242967       0.00413487      -0.00197025
Si      15.67774250      18.63028000      10.55937500  F      748       0.00000000       0.00000000       0.00000000
Si      18.40519500      21.34737750      10.56646000  F      749       0.00000000       0.00000000       0.00000000
Si      18.42944750      18.64499500      13.29636500  F      750       0.00000000       0.00000000       0.00000000
Si      15.67747000      21.34874000      13.29418500  F      751       0.00000000       0.00000000       0.00000000
Si      19.77505250      17.25715250       9.19796500  F      752       0.00000000       0.00000000       0.00000000
Si      22.49269500      19.98106250       9.20341500  F      753       0.00000000       0.00000000       0.00000000
Si      19.78132000      19.99550500      11.92596250  F      754       0.00000000       0.00000000       0.00000000
Si      22.49460250      17.25551750      11.92841500  F      755       0.00000000       0.00000000       0.00000000
Si      21.13373750      18.62019750      10.56537000  F      756       0.00000000       0.00000000       0.00000000
Si      23.85192500      21.34247250      10.56891250  F      757       0.00000000       0.00000000       0.00000000
Si      23.85247000      18.61747250      13.29554750  F      758       0.00000000       0.00000000       0.00000000
Si      21.13591750      21.35092000      13.29691000  F      759       0.00000000       0.00000000       0.00000000
Si      25.21170000      22.70361000       9.20559500  F      760       0.00000000       0.00000000       0.00000000
Si       0.68424750      25.42615750       9.20614000  F      761       0.00000000       0.00000000       0.00000000
Si      25.21251750      25.42697500      11.93223000  F      762       0.00000000       0.00000000       0.00000000
Si       0.68070500      22.70579000      11.93277500  F      763       0.00000000       0.00000000       0.00000000
Si      26.57174750      24.06556500      10.56836750  F      764       0.00000000       0.00000000       0.00000000
Si       2.04484000      26.78865750      10.56836750  F      765       0.00000000       0.00000000       0.00000000
Si       2.03666500      24.07374000      13.29473000  F      766       0.00000000       0.00000000       0.00000000
Si      26.57202000      26.78838500      13.29582000  F      767       0.00000000       0.00000000       0.00000000
Si       3.40570500      22.70470000       9.20614000  F      768       0.00000000       0.00000000       0.00000000
Si       6.13016000      25.42942750       9.20532250  F      769       0.00000000       0.00000000       0.00000000
Si       3.40461500      25.42970000      11.93277500  F      770       0.00000000       0.00000000       0.00000000
Si       6.12416500      22.71314750      11.93114000  F      771       0.00000000       0.00000000       0.00000000
Si       4.76520750      24.07074250      10.56700500  F      772       0.00000000       0.00000000       0.00000000
Si       7.49375000      26.78756750      10.56945750  F      773       0.00000000       0.00000000       0.00000000
Si       7.49075250      24.06938000      13.29636500  F      774       0.00000000       0.00000000       0.00000000
Si       4.76766000      26.78893000      13.29636500  F      775       0.00000000       0.00000000       0.00000000
Si       8.85434250      22.71178500       9.20232500  F      776       0.00000000       0.00000000       0.00000000
Si      11.58424750      25.42643000       9.20695750  F      777       0.00000000       0.00000000       0.00000000
Si       8.85679500      25.42806500      11.93359250  F      778       0.00000000       0.00000000       0.00000000
Si      11.58125000      22.70524500      11.93413750  F      779       0.00000000       0.00000000       0.00000000
Si      10.21929500      24.06692750      10.57000250  F      780       0.00000000       0.00000000       0.00000000
Si      12.94811000      26.78675000      10.57000250  F      781       0.00000000       0.00000000       0.00000000
Si      12.94620250      24.06502000      13.29772750  F      782       0.00000000       0.00000000       0.00000000
Si      10.22093000      26.78838500      13.29691000  F      783       0.00000000       0.00000000       0.00000000
Si      14.31306250      22.70878750       9.20287000  F      784       0.00000000       0.00000000       0.00000000
Si      17.03915250      25.42643000       9.20559500  F      785       0.00000000       0.00000000       0.00000000
Si      14.31061000      25.42561250      11.93359250  F      786       0.00000000       0.00000000       0.00000000
Si      17.04024250      22.70742500      11.93059500  F      787       0.00000000       0.00000000       0.00000000
Si      15.67529000      24.06747250      10.56864000  F      788       0.00000000       0.00000000       0.00000000
Si      18.40247000      26.78593250      10.56836750  F      789       0.00000000       0.00000000       0.00000000
Si      18.40219750      24.06692750      13.29609250  F      790       0.00000000       0.00000000       0.00000000
Si      15.67447250      26.78675000      13.29609250  F      791       0.00000000       0.00000000       0.00000000
Si      19.76606000      22.70633500       9.20396000  F      792       0.00000000       0.00000000       0.00000000
Si      22.48942500      25.42506750       9.20532250  F      793       0.00000000       0.00000000       0.00000000
Si      19.76497000      25.42643000      11.93223000  F      794       0.00000000       0.00000000       0.00000000
Si      22.49351250      22.70824250      11.93114000  F      795       0.00000000       0.00000000       0.00000000
Si      21.12774250      24.06611000      10.56891250  F      796       0.00000000       0.00000000       0.00000000
Si      23.85192500      26.78538750      10.56809500  F      797       0.00000000       0.00000000       0.00000000
Si      23.85219750      24.06747250      13.29663750  F      798       0.00000000       0.00000000       0.00000000
Si      21.12747000      26.78647750      13.29582000  F      799       0.00000000       0.00000000       0.00000000
Si      25.21360750       0.89679750      14.66104500  F      800       0.00000000       0.00000000       0.00000000
Si       0.68234000       3.62016250      14.65995500  F      801       0.00000000       0.00000000       0.00000000
Si      25.21306250       3.62152500      17.38822500  F      802       0.00000000       0.00000000       0.00000000
Si       0.68234000       0.90088500      17.38822500  F      803       0.00000000       0.00000000       0.00000000
Si      26.57229250       2.26011500      16.02409000  F      804       0.00000000       0.00000000       0.00000000
Si       2.04075250       4.98130000      16.02463500  F      805       0.00000000       0.00000000       0.00000000
Si       2.04375000       2.26175000      18.75099750  F      806       0.00000000       0.00000000       0.00000000
Si      26.57229250       4.98484250      18.75072500  F      807       0.00000000       0.00000000       0.00000000
Si       3.40516000       0.89843250      14.66022750  F      808       0.00000000       0.00000000       0.00000000
Si       6.12607250       3.61580250      14.65886500  F      809       0.00000000       0.00000000       0.00000000
Si       3.40461500       3.62098000      17.38713500  F      810       0.00000000       0.00000000       0.00000000
Si       6.13097750       0.89979500      17.38768000  F      811       0.00000000       0.00000000       0.00000000
Si       4.76629750       2.25793500      16.02436250  F      812       0.00000000       0.00000000       0.00000000
Si       7.48584750       4.97367000      16.02490750  F      813       0.00000000       0.00000000       0.00000000
Si       7.49375000       2.26038750      18.75099750  F      814       0.00000000       0.00000000       0.00000000
Si       4.76493500       4.98102750      18.75208750  F      815       0.00000000       0.00000000       0.00000000
Si       8.85788500       0.89979500      14.65995500  F      816       0.00000000       0.00000000       0.00000000
Si      11.58533750       3.62207000      14.65750250  F      817       0.00000000       0.00000000       0.00000000
Si       8.85652250       3.61989000      17.38768000  F      818       0.00000000       0.00000000       0.00000000
Si      11.58424750       0.90034000      17.38604500  F      819       0.00000000       0.00000000       0.00000000
Si      10.22147500       2.26175000      16.02245500  F      820       0.00000000       0.00000000       0.00000000
Si      12.95056250       4.98239000      16.02163750  F      821       0.00000000       0.00000000       0.00000000
Si      12.94783750       2.26093250      18.74909000  F      822       0.00000000       0.00000000       0.00000000
Si      10.21956750       4.98021000      18.75317750  F      823       0.00000000       0.00000000       0.00000000
Si      14.31142750       0.89870500      14.65913750  F      824       0.00000000       0.00000000       0.00000000
Si      17.04405750       3.61553000      14.65886500  F      825       0.00000000       0.00000000       0.00000000
Si      14.31279000       3.62070750      17.38577250  F      826       0.00000000       0.00000000       0.00000000
Si      17.03751750       0.89816000      17.38631750  F      827       0.00000000       0.00000000       0.00000000
Si      15.67583500       2.25902500      16.02218250  F      828       0.00000000       0.00000000       0.00000000
Si      18.41200750       4.97121750      16.02381750  F      829       0.00000000       0.00000000       0.00000000
Si      18.40110750       2.25739000      18.75099750  F      830       0.00000000       0.00000000       0.00000000
Si      15.67665250       4.97775750      18.75345000  F      831       0.00000000       0.00000000       0.00000000
Si      19.76524250       0.89598000      14.65995500  F      832       0.00000000       0.00000000       0.00000000
Si      22.50059750       3.60980750      14.66213500  F      833       0.00000000       0.00000000       0.00000000
Si      19.76851250       3.61471250      17.38986000  F      834       0.00000000       0.00000000       0.00000000
Si      22.48915250       0.89734250      17.38822500  F      835       0.00000000       0.00000000       0.00000000
Si      21.12937750       2.25575500      16.02381750  F      836       0.00000000       0.00000000       0.00000000
Si      23.85465000       4.98102750      16.02381750  F      837       0.00000000       0.00000000       0.00000000
Si      23.84920000       2.26120500      18.75018000  F      838       0.00000000       0.00000000       0.00000000
Si      21.12747000       4.98293500      18.75072500  F      839       0.00000000       0.00000000       0.00000000
Si      25.21442500       6.34516250      14.65995500  F      840       0.00000000       0.00000000       0.00000000
Si       0.68479250       9.07343250      14.65995500  F      841       0.00000000       0.00000000       0.00000000
Si      25.21224500       9.07288750      17.38631750  F      842       0.00000000       0.00000000       0.00000000
Si       0.68234000       6.34652500      17.38713500  F      843       0.00000000       0.00000000       0.00000000
Si      26.57365500       7.71011500      16.02300000  F      844       0.00000000       0.00000000       0.00000000
Si       2.04511250      10.43702250      16.02409000  F      845       0.00000000       0.00000000       0.00000000
Si       2.04129750       7.70848000      18.75236000  F      846       0.00000000       0.00000000       0.00000000
Si      26.57202000      10.43675000      18.74936250  F      847       0.00000000       0.00000000       0.00000000
Si       3.39916500       6.33998500      14.65941000  F      848       0.00000000       0.00000000       0.00000000
Si       6.10672500       9.05299500      14.65832000  F      849       0.00000000       0.00000000       0.00000000
Si       3.40052750       9.07043500      17.39040500  F      850       0.00000000       0.00000000       0.00000000
Si       6.12443750       6.33944000      17.38822500  F      851       0.00000000       0.00000000       0.00000000
Si       4.75430750       7.69839750      16.02817750  F      852       0.00000000       0.00000000       0.00000000
Si       7.45015000      10.40841000      16.03826000  F      853       0.00000000       0.00000000       0.00000000
Si       7.48612000       7.70003250      18.75317750  F      854       0.00000000       0.00000000       0.00000000
Si       4.75730500      10.43320750      18.75917250  F      855       0.00000000       0.00000000       0.00000000
Si       8.84262500       6.32636000      14.65450500  F      856       0.00000000       0.00000000       0.00000000
Si      11.57551496       9.02072113      14.63913822  T      857       0.00172127       0.00724624       0.02154502
Si       8.84153500       9.05136000      17.37896000  F      858       0.00000000       0.00000000       0.00000000
Si      11.58506500       6.33835000      17.39122250  F      859       0.00000000       0.00000000       0.00000000
Si      10.20512500       7.67469000      16.02436250  F      860       0.00000000       0.00000000       0.00000000
Si      13.01825880      10.33736659      16.00730675  T      861      -0.01309144       0.10883851       0.08863399
Si      12.94593000       7.69649000      18.76353250  F      862       0.00000000       0.00000000       0.00000000
Si      10.17106250      10.38443000      18.79596000  F      863       0.00000000       0.00000000       0.00000000
Si      14.32232750       6.33726000      14.65695750  F      864       0.00000000       0.00000000       0.00000000
Si      17.12989500       8.98051000      14.66676750  F      865       0.00000000       0.00000000       0.00000000
Si      14.34634941       9.03283828      17.42340434  T      866       0.00219346      -0.00927774       0.00838253
Si      17.04896250       6.33017500      17.39149500  F      867       0.00000000       0.00000000       0.00000000
Si      15.69327500       7.68858750      16.02981250  F      868       0.00000000       0.00000000       0.00000000
Si      18.42181750      10.41713000      16.02981250  F      869       0.00000000       0.00000000       0.00000000
Si      18.40437750       7.70602750      18.75181500  F      870       0.00000000       0.00000000       0.00000000
Si      15.67147500      10.43893000      18.77279750  F      871       0.00000000       0.00000000       0.00000000
Si      19.80039500       6.31001000      14.66349750  F      872       0.00000000       0.00000000       0.00000000
Si      22.49514750       9.06634750      14.65886500  F      873       0.00000000       0.00000000       0.00000000
Si      19.78023000       9.06144250      17.39149500  F      874       0.00000000       0.00000000       0.00000000
Si      22.49569250       6.34189250      17.38986000  F      875       0.00000000       0.00000000       0.00000000
Si      21.13946000       7.69839750      16.02381750  F      876       0.00000000       0.00000000       0.00000000
Si      23.85138000      10.43457000      16.02218250  F      877       0.00000000       0.00000000       0.00000000
Si      23.85301500       7.70929750      18.75099750  F      878       0.00000000       0.00000000       0.00000000
Si      21.13264750      10.43375250      18.75345000  F      879       0.00000000       0.00000000       0.00000000
Si      25.21170000      11.79897750      14.65913750  F      880       0.00000000       0.00000000       0.00000000
Si       0.68370250      14.52724750      14.66104500  F      881       0.00000000       0.00000000       0.00000000
Si      25.21033750      14.52615750      17.38604500  F      882       0.00000000       0.00000000       0.00000000
Si       0.68315750      11.80034000      17.38686250  F      883       0.00000000       0.00000000       0.00000000
Si      26.57202000      13.16311250      16.02300000  F      884       0.00000000       0.00000000       0.00000000
Si       2.04238750      15.89220000      16.02572500  F      885       0.00000000       0.00000000       0.00000000
Si       2.04211500      13.16365750      18.75263250  F      886       0.00000000       0.00000000       0.00000000
Si      26.57011250      15.88974750      18.75018000  F      887       0.00000000       0.00000000       0.00000000
Si       3.40734000      11.80115750      14.66159000  F      888       0.00000000       0.00000000       0.00000000
Si       6.12443750      14.53705750      14.66622250  F      889       0.00000000       0.00000000       0.00000000
Si       3.40243500      14.53024500      17.39204000  F      890       0.00000000       0.00000000       0.00000000
Si       6.11490000      11.80034000      17.40348500  F      891       0.00000000       0.00000000       0.00000000
Si       4.76520750      13.16692750      16.02899500  F      892       0.00000000       0.00000000       0.00000000
Si       7.45151250      15.92735250      16.04779750  F      893       0.00000000       0.00000000       0.00000000
Si       7.43761500      13.16365750      18.80985750  F      894       0.00000000       0.00000000       0.00000000
Si       4.74885750      15.89874000      18.76707500  F      895       0.00000000       0.00000000       0.00000000
Si       8.81987722      11.78134772      14.65681591  T      896       0.03923140       0.00263967       0.01346860
Si      12.03653089      12.43193076      15.18334253  T      897      -0.08708351      -0.08786482      -0.06288649
Si       8.75406250      14.59591750      17.50512750  F      898       0.00000000       0.00000000       0.00000000
Si      11.57003128      11.78056754      17.50753758  T      899      -0.07760357      -0.02218808       0.04001300
Si       9.96846909      13.16079882      16.18741598  T      900       0.12904172       0.07399961       0.13368729
Si      12.90662215      16.13207743      16.20350531  T      901      -0.05377511      -0.06253828       0.03011183
Si      12.93312389      13.15918565      18.86957925  T      902       0.00246658       0.00166630      -0.00086092
Si      10.18959250      15.92081250      18.82212000  F      903       0.00000000       0.00000000       0.00000000
Si      14.55660426      11.54726993      14.59276592  T      904      -0.05406377      -0.11217819       0.07505644
Si      17.05748236      14.52642987      14.65520690  T      905       0.01679896       0.00006370      -0.01100131
Si      14.29758272      14.51623651      17.49577857  T      906       0.01012743       0.03971571      -0.05971437
Si      17.07803165      11.76195664      17.42538193  T      907      -0.00875528      -0.00463105       0.00050274
Si      15.75401992      13.07522534      16.02030396  T      908      -0.02862637       0.00604123       0.06187551
Si      18.41142696      15.89622132      16.02169630  T      909       0.00038719       0.00011032       0.00302041
Si      18.41391500      13.16447500      18.76353250  F      910       0.00000000       0.00000000       0.00000000
Si      15.69657776      15.90591645      18.77874340  T      911      -0.00016563      -0.00811511       0.00913482
Si      19.77314500      11.78807750      14.65695750  F      912       0.00000000       0.00000000       0.00000000
Si      22.48860750      14.52506750      14.65750250  F      913       0.00000000       0.00000000       0.00000000
Si      19.77205500      14.52561250      17.39122250  F      914       0.00000000       0.00000000       0.00000000
Si      22.48969750      11.79761500      17.38577250  F      915       0.00000000       0.00000000       0.00000000
Si      21.12801500      13.15984250      16.02163750  F      916       0.00000000       0.00000000       0.00000000
Si      23.84892750      15.88893000      16.02245500  F      917       0.00000000       0.00000000       0.00000000
Si      23.84947250      13.16256750      18.74909000  F      918       0.00000000       0.00000000       0.00000000
Si      21.13046750      15.89083750      18.75317750  F      919       0.00000000       0.00000000       0.00000000
Si      25.21061000      17.25252000      14.65995500  F      920       0.00000000       0.00000000       0.00000000
Si       0.68043250      19.98106250      14.66104500  F      921       0.00000000       0.00000000       0.00000000
Si      25.21061000      19.97942750      17.38768000  F      922       0.00000000       0.00000000       0.00000000
Si       0.68070500      17.25470000      17.38877000  F      923       0.00000000       0.00000000       0.00000000
Si      26.57038500      18.61638250      16.02381750  F      924       0.00000000       0.00000000       0.00000000
Si       2.03557500      21.34928500      16.02545250  F      925       0.00000000       0.00000000       0.00000000
Si       2.03475750      18.62156000      18.75563000  F      926       0.00000000       0.00000000       0.00000000
Si      26.56847750      21.34356250      18.75181500  F      927       0.00000000       0.00000000       0.00000000
Si       3.40052750      17.25987750      14.66322500  F      928       0.00000000       0.00000000       0.00000000
Si       6.08656000      20.02384500      14.67085500  F      929       0.00000000       0.00000000       0.00000000
Si       3.39071750      19.99169000      17.39640000  F      930       0.00000000       0.00000000       0.00000000
Si       6.09637000      17.27813500      17.40621000  F      931       0.00000000       0.00000000       0.00000000
Si       4.74531500      18.63682000      16.03063000  F      932       0.00000000       0.00000000       0.00000000
Si       7.47385750      21.36509000      16.03063000  F      933       0.00000000       0.00000000       0.00000000
Si       7.47631000      18.63436750      18.76680250  F      934       0.00000000       0.00000000       0.00000000
Si       4.75921250      21.35119250      18.75672000  F      935       0.00000000       0.00000000       0.00000000
Si      11.21092356      14.88537585      15.04306632  T      936      -0.04808040       0.00582664      -0.10419584
Si      11.57334750      19.98596750      14.66622250  F      937       0.00000000       0.00000000       0.00000000
Si       8.83227000      20.01403500      17.40621000  F      938       0.00000000       0.00000000       0.00000000
Si      11.50016102      17.38574746      17.52172220  T      939      -0.00794252       0.00484867      -0.00519815
Si      10.18332500      18.65889250      16.04779750  F      940       0.00000000       0.00000000       0.00000000
Si      12.94347750      21.34519750      16.02899500  F      941       0.00000000       0.00000000       0.00000000
Si      12.94674750      18.67279000      18.80985750  F      942       0.00000000       0.00000000       0.00000000
Si      10.21166500      21.36154750      18.76707500  F      943       0.00000000       0.00000000       0.00000000
Si      14.30367595      17.25974834      14.66552342  T      944      -0.05199915       0.00384371      -0.03621292
Si      17.05741000      20.00395250      14.65832000  F      945       0.00000000       0.00000000       0.00000000
Si      14.31006500      19.99550500      17.40348500  F      946       0.00000000       0.00000000       0.00000000
Si      17.04563980      17.26197719      17.38507931  T      947       0.00781914      -0.00054042       0.01126455
Si      15.68359172      18.63360812      16.02261529  T      948      -0.00096526      -0.00095593      -0.00679623
Si      18.41228000      21.35609750      16.02817750  F      949       0.00000000       0.00000000       0.00000000
Si      18.41064500      18.62428500      18.75317750  F      950       0.00000000       0.00000000       0.00000000
Si      15.67719750      21.35310000      18.75917250  F      951       0.00000000       0.00000000       0.00000000
Si      19.78404500      17.26778000      14.65450500  F      952       0.00000000       0.00000000       0.00000000
Si      22.49460250      19.98433250      14.65886500  F      953       0.00000000       0.00000000       0.00000000
Si      19.77123750      19.98596750      17.38822500  F      954       0.00000000       0.00000000       0.00000000
Si      22.49051500      17.25388250      17.38768000  F      955       0.00000000       0.00000000       0.00000000
Si      21.13700750      18.62483000      16.02490750  F      956       0.00000000       0.00000000       0.00000000
Si      23.85247000      21.34438000      16.02436250  F      957       0.00000000       0.00000000       0.00000000
Si      23.85029000      18.61665500      18.75099750  F      958       0.00000000       0.00000000       0.00000000
Si      21.12937750      21.34547000      18.75208750  F      959       0.00000000       0.00000000       0.00000000
Si      25.21197250      22.70551750      14.66022750  F      960       0.00000000       0.00000000       0.00000000
Si       0.67961500      25.43079000      14.66159000  F      961       0.00000000       0.00000000       0.00000000
Si      25.20952000      25.42806500      17.38822500  F      962       0.00000000       0.00000000       0.00000000
Si       0.67770750      22.70824250      17.39013250  F      963       0.00000000       0.00000000       0.00000000
Si      26.56984000      24.06829000      16.02436250  F      964       0.00000000       0.00000000       0.00000000
Si       2.04211500      26.79056500      16.02436250  F      965       0.00000000       0.00000000       0.00000000
Si       2.04102500      24.06938000      18.75208750  F      966       0.00000000       0.00000000       0.00000000
Si      26.57065750      26.78974750      18.75072500  F      967       0.00000000       0.00000000       0.00000000
Si       3.39099000      22.71941500      14.66377000  F      968       0.00000000       0.00000000       0.00000000
Si       6.12934250      25.42997250      14.66104500  F      969       0.00000000       0.00000000       0.00000000
Si       3.40216250      25.43297000      17.39013250  F      970       0.00000000       0.00000000       0.00000000
Si       6.11871500      22.71968750      17.39640000  F      971       0.00000000       0.00000000       0.00000000
Si       4.76112000      24.07483000      16.02545250  F      972       0.00000000       0.00000000       0.00000000
Si       7.49402250      26.79002000      16.02381750  F      973       0.00000000       0.00000000       0.00000000
Si       7.48884500      24.07564750      18.75563000  F      974       0.00000000       0.00000000       0.00000000
Si       4.76684250      26.79220000      18.75181500  F      975       0.00000000       0.00000000       0.00000000
Si       8.85052750      22.70987750      14.66322500  F      976       0.00000000       0.00000000       0.00000000
Si      11.58315750      25.42697500      14.66104500  F      977       0.00000000       0.00000000       0.00000000
Si       8.85570500      25.42997250      17.38877000  F      978       0.00000000       0.00000000       0.00000000
Si      11.58016000      22.70797000      17.39204000  F      979       0.00000000       0.00000000       0.00000000
Si      10.21820500      24.06801750      16.02572500  F      980       0.00000000       0.00000000       0.00000000
Si      12.94729250      26.78838500      16.02300000  F      981       0.00000000       0.00000000       0.00000000
Si      12.94674750      24.06829000      18.75263250  F      982       0.00000000       0.00000000       0.00000000
Si      10.22065750      26.79029250      18.75018000  F      983       0.00000000       0.00000000       0.00000000
Si      14.30924750      22.70306500      14.66159000  F      984       0.00000000       0.00000000       0.00000000
Si      17.03697250      25.42561250      14.65995500  F      985       0.00000000       0.00000000       0.00000000
Si      14.31006500      25.42724750      17.38686250  F      986       0.00000000       0.00000000       0.00000000
Si      17.03997000      22.70987750      17.39040500  F      987       0.00000000       0.00000000       0.00000000
Si      15.67338250      24.06529250      16.02409000  F      988       0.00000000       0.00000000       0.00000000
Si      18.40029000      26.78702250      16.02300000  F      989       0.00000000       0.00000000       0.00000000
Si      18.40192500      24.06910750      18.75236000  F      990       0.00000000       0.00000000       0.00000000
Si      15.67365500      26.78838500      18.74936250  F      991       0.00000000       0.00000000       0.00000000
Si      19.77042000      22.71124000      14.65941000  F      992       0.00000000       0.00000000       0.00000000
Si      22.49024250      25.42806500      14.65995500  F      993       0.00000000       0.00000000       0.00000000
Si      19.76388000      25.42833750      17.38713500  F      994       0.00000000       0.00000000       0.00000000
Si      22.48942500      22.70579000      17.38713500  F      995       0.00000000       0.00000000       0.00000000
Si      21.12910500      24.06965250      16.02463500  F      996       0.00000000       0.00000000       0.00000000
Si      23.85029000      26.78838500      16.02409000  F      997       0.00000000       0.00000000       0.00000000
Si      23.84865500      24.06665500      18.75099750  F      998       0.00000000       0.00000000       0.00000000
Si      21.12556250      26.78811250      18.75072500  F      999       0.00000000       0.00000000       0.00000000
Si      11.58683117      14.51908552       9.19003079  T     1000       0.00162107       0.00538828       0.00157567
Si       8.85161750      17.25878750       9.19851000  F     1001       0.00000000       0.00000000       0.00000000
Si       8.84289750      19.99904750      11.92732500  F     1002       0.00000000       0.00000000       0.00000000
Si      11.58343000      17.25579000       6.47705250  F     1003       0.00000000       0.00000000       0.00000000
1004
Lattice="27.25 0.0 0.0 0.0 27.25 0.0 0.0 0.0 27.25" Properties=species:S:1:pos:R:3:move_mask:L:1:spacegroup_kinds:I:1:forces:R:3 energy=-10127.74441052352 bias_energy=-10127.401765507639 name=displace pbc="T T T"
Si      25.20979250       0.90061250      20.11322500  F        0       0.00000000       0.00000000       0.00000000
Si       0.68343000       3.62397750      20.11322500  F        1       0.00000000       0.00000000       0.00000000
Si      25.21033750       3.62397750      22.83686250  F        2       0.00000000       0.00000000       0.00000000
Si       0.68261250       0.90143000      22.83768000  F        3       0.00000000       0.00000000       0.00000000
Si      26.57147500       2.26256750      21.47490750  F        4       0.00000000       0.00000000       0.00000000
Si       2.04429500       4.98538750      21.47599750  F        5       0.00000000       0.00000000       0.00000000
Si       2.04538500       2.26256750      24.19936250  F        6       0.00000000       0.00000000       0.00000000
Si      26.57229250       4.98566000      24.19854500  F        7       0.00000000       0.00000000       0.00000000
Si       3.40543250       0.90224750      20.11431500  F        8       0.00000000       0.00000000       0.00000000
Si       6.13070500       3.62152500      20.11349750  F        9       0.00000000       0.00000000       0.00000000
Si       3.40679500       3.62425000      22.83795250  F       10       0.00000000       0.00000000       0.00000000
Si       6.13070500       0.90224750      22.83931500  F       11       0.00000000       0.00000000       0.00000000
Si       4.76847750       2.26229500      21.47654250  F       12       0.00000000       0.00000000       0.00000000
Si       7.49211500       4.98239000      21.47736000  F       13       0.00000000       0.00000000       0.00000000
Si       7.49402250       2.26229500      24.20072500  F       14       0.00000000       0.00000000       0.00000000
Si       4.76902250       4.98538750      24.20045250  F       15       0.00000000       0.00000000       0.00000000
Si       8.85734000       0.90034000      20.11377000  F       16       0.00000000       0.00000000       0.00000000
Si      11.58452000       3.62043500      20.11458750  F       17       0.00000000       0.00000000       0.00000000
Si       8.85706750       3.62207000      22.83904250  F       18       0.00000000       0.00000000       0.00000000
Si      11.58397500       0.90034000      22.83849750  F       19       0.00000000       0.00000000       0.00000000
Si      10.22038500       2.26093250      21.47654250  F       20       0.00000000       0.00000000       0.00000000
Si      12.94729250       4.97966500      21.48035750  F       21       0.00000000       0.00000000       0.00000000
Si      12.94756500       2.26038750      24.20072500  F       22       0.00000000       0.00000000       0.00000000
Si      10.21902250       4.98048250      24.20508500  F       23       0.00000000       0.00000000       0.00000000
Si      14.31061000       0.89979500      20.11213500  F       24       0.00000000       0.00000000       0.00000000
Si      17.03915250       3.61852750      20.11486000  F       25       0.00000000       0.00000000       0.00000000
Si      14.31197250       3.62016250      22.83986000  F       26       0.00000000       0.00000000       0.00000000
Si      17.03751750       0.89952250      22.83768000  F       27       0.00000000       0.00000000       0.00000000
Si      15.67420000       2.25929750      21.47599750  F       28       0.00000000       0.00000000       0.00000000
Si      18.40083500       4.98375250      21.47545250  F       29       0.00000000       0.00000000       0.00000000
Si      18.40029000       2.26120500      24.19827250  F       30       0.00000000       0.00000000       0.00000000
Si      15.67447250       4.98402500      24.20045250  F       31       0.00000000       0.00000000       0.00000000
Si      19.76333500       0.89843250      20.11349750  F       32       0.00000000       0.00000000       0.00000000
Si      22.48779000       3.62261500      20.11322500  F       33       0.00000000       0.00000000       0.00000000
Si      19.76306250       3.62288750      22.83686250  F       34       0.00000000       0.00000000       0.00000000
Si      22.48642750       0.90006750      22.83686250  F       35       0.00000000       0.00000000       0.00000000
Si      21.12501750       2.26147750      21.47463500  F       36       0.00000000       0.00000000       0.00000000
Si      23.84920000       4.98538750      21.47463500  F       37       0.00000000       0.00000000       0.00000000
Si      23.84865500       2.26175000      24.19800000  F       38       0.00000000       0.00000000       0.00000000
Si      21.12529000       4.98538750      24.19772750  F       39       0.00000000       0.00000000       0.00000000
Si      25.21197250       6.34707000      20.11349750  F       40       0.00000000       0.00000000       0.00000000
Si       0.68097750       9.07288750      20.11377000  F       41       0.00000000       0.00000000       0.00000000
Si      25.21088250       9.07288750      22.83768000  F       42       0.00000000       0.00000000       0.00000000
Si       0.68343000       6.34788750      22.83740750  F       43       0.00000000       0.00000000       0.00000000
Si      26.57147500       7.71011500      21.47599750  F       44       0.00000000       0.00000000       0.00000000
Si       2.03966250      10.43429750      21.47954000  F       45       0.00000000       0.00000000       0.00000000
Si       2.04429500       7.70957000      24.20018000  F       46       0.00000000       0.00000000       0.00000000
Si      26.57093000      10.43566000      24.20045250  F       47       0.00000000       0.00000000       0.00000000
Si       3.40488750       6.34652500      20.11349750  F       48       0.00000000       0.00000000       0.00000000
Si       6.12634500       9.06934500      20.11704000  F       49       0.00000000       0.00000000       0.00000000
Si       3.40461500       9.07207000      22.83986000  F       50       0.00000000       0.00000000       0.00000000
Si       6.13070500       6.34652500      22.83931500  F       51       0.00000000       0.00000000       0.00000000
Si       4.76602500       7.70766250      21.47790500  F       52       0.00000000       0.00000000       0.00000000
Si       7.47740000      10.42966500      21.49561750  F       53       0.00000000       0.00000000       0.00000000
Si       7.49102500       7.70684500      24.20617500  F       54       0.00000000       0.00000000       0.00000000
Si       4.76221000      10.43266250      24.20862750  F       55       0.00000000       0.00000000       0.00000000
Si       8.85461500       6.34216500      20.11622250  F       56       0.00000000       0.00000000       0.00000000
Si      11.57770750       9.05190500      20.13775000  F       57       0.00000000       0.00000000       0.00000000
Si       8.85243500       9.06825500      22.84776250  F       58       0.00000000       0.00000000       0.00000000
Si      11.58424750       6.33862250      22.84749000  F       59       0.00000000       0.00000000       0.00000000
Si      10.21411750       7.69540000      21.49207500  F       60       0.00000000       0.00000000       0.00000000
Si      12.93911750      10.41876500      21.50025000  F       61       0.00000000       0.00000000       0.00000000
Si      12.94620250       7.70303000      24.20890000  F       62       0.00000000       0.00000000       0.00000000
Si      10.21548000      10.43293500      24.20971750  F       63       0.00000000       0.00000000       0.00000000
Si      14.31360750       6.33835000      20.12031000  F       64       0.00000000       0.00000000       0.00000000
Si      17.04051500       9.07016250      20.11840250  F       65       0.00000000       0.00000000       0.00000000
Si      14.31170000       9.06253250      22.85103250  F       66       0.00000000       0.00000000       0.00000000
Si      17.03860750       6.34543500      22.83904250  F       67       0.00000000       0.00000000       0.00000000
Si      15.67529000       7.70657250      21.47981250  F       68       0.00000000       0.00000000       0.00000000
Si      18.40383250      10.43511500      21.47981250  F       69       0.00000000       0.00000000       0.00000000
Si      18.40056250       7.70984250      24.19990750  F       70       0.00000000       0.00000000       0.00000000
Si      15.67583500      10.43457000      24.20454000  F       71       0.00000000       0.00000000       0.00000000
Si      19.76497000       6.34543500      20.11431500  F       72       0.00000000       0.00000000       0.00000000
Si      22.49187750       9.07125250      20.11486000  F       73       0.00000000       0.00000000       0.00000000
Si      19.76497000       9.07179750      22.83904250  F       74       0.00000000       0.00000000       0.00000000
Si      22.48751750       6.34734250      22.83686250  F       75       0.00000000       0.00000000       0.00000000
Si      21.12665250       7.70984250      21.47545250  F       76       0.00000000       0.00000000       0.00000000
Si      23.85110750      10.43647750      21.47599750  F       77       0.00000000       0.00000000       0.00000000
Si      23.84920000       7.71011500      24.19827250  F       78       0.00000000       0.00000000       0.00000000
Si      21.12665250      10.43593250      24.20045250  F       79       0.00000000       0.00000000       0.00000000
Si      25.21061000      11.79979500      20.11213500  F       80       0.00000000       0.00000000       0.00000000
Si       0.68070500      14.52752000      20.11458750  F       81       0.00000000       0.00000000       0.00000000
Si      25.21006500      14.52643000      22.83849750  F       82       0.00000000       0.00000000       0.00000000
Si       0.68016000      11.79979500      22.84013250  F       83       0.00000000       0.00000000       0.00000000
Si      26.57065750      13.16311250      21.47599750  F       84       0.00000000       0.00000000       0.00000000
Si       2.03612000      15.89192750      21.48281000  F       85       0.00000000       0.00000000       0.00000000
Si       2.03693750      13.16175000      24.20835500  F       86       0.00000000       0.00000000       0.00000000
Si      26.56875000      15.89002000      24.20236000  F       87       0.00000000       0.00000000       0.00000000
Si       3.39780250      11.79925000      20.12085500  F       88       0.00000000       0.00000000       0.00000000
Si       6.09201000      14.53896500      20.15355500  F       89       0.00000000       0.00000000       0.00000000
Si       3.39208000      14.53079000      22.85321250  F       90       0.00000000       0.00000000       0.00000000
Si       6.11871500      11.79897750      22.85321250  F       91       0.00000000       0.00000000       0.00000000
Si       4.74531500      13.16093250      21.49997750  F       92       0.00000000       0.00000000       0.00000000
Si       7.47167750      15.89955750      21.50352000  F       93       0.00000000       0.00000000       0.00000000
Si       7.48312250      13.16202250      24.21435000  F       94       0.00000000       0.00000000       0.00000000
Si       4.75921250      15.89220000      24.21217000  F       95       0.00000000       0.00000000       0.00000000
Si       8.83063500      11.79380000      20.14183750  F       96       0.00000000       0.00000000       0.00000000
Si      11.55100250      14.55940250      20.19361250  F       97       0.00000000       0.00000000       0.00000000
Si       8.83935500      14.53133500      22.85893500  F       98       0.00000000       0.00000000       0.00000000
Si      11.57634500      11.79625250      22.85130500  F       99       0.00000000       0.00000000       0.00000000
Si      10.19449750      13.15929750      21.50570000  F      100       0.00000000       0.00000000       0.00000000
Si      12.95110750      15.91618000      21.50570000  F      101       0.00000000       0.00000000       0.00000000
Si      12.94593000      13.16447500      24.20399500  F      102       0.00000000       0.00000000       0.00000000
Si      10.21575250      15.89465250      24.20917250  F      103       0.00000000       0.00000000       0.00000000
Si      14.32832250      11.78208250      20.18107750  F      104       0.00000000       0.00000000       0.00000000
Si      17.05850000      14.53297000      20.13775000  F      105       0.00000000       0.00000000       0.00000000
Si      14.31415250      14.53406000      22.85130500  F      106       0.00000000       0.00000000       0.00000000
Si      17.04787250      11.79870500      22.85103250  F      107       0.00000000       0.00000000       0.00000000
Si      15.69164000      13.17128750      21.50025000  F      108       0.00000000       0.00000000       0.00000000
Si      18.41500500      15.89628750      21.49207500  F      109       0.00000000       0.00000000       0.00000000
Si      18.40737500      13.16420250      24.20890000  F      110       0.00000000       0.00000000       0.00000000
Si      15.67747000      15.89492500      24.20971750  F      111       0.00000000       0.00000000       0.00000000
Si      19.77205500      11.79707000      20.12031000  F      112       0.00000000       0.00000000       0.00000000
Si      22.48997000      14.52588500      20.11458750  F      113       0.00000000       0.00000000       0.00000000
Si      19.77178250      14.52615750      22.84749000  F      114       0.00000000       0.00000000       0.00000000
Si      22.49024250      11.79843250      22.83986000  F      115       0.00000000       0.00000000       0.00000000
Si      21.13074000      13.16311250      21.48035750  F      116       0.00000000       0.00000000       0.00000000
Si      23.84947250      15.89002000      21.47654250  F      117       0.00000000       0.00000000       0.00000000
Si      23.85001750      13.16284000      24.20072500  F      118       0.00000000       0.00000000       0.00000000
Si      21.12992250      15.89165500      24.20508500  F      119       0.00000000       0.00000000       0.00000000
Si      25.21006500      17.25306500      20.11377000  F      120       0.00000000       0.00000000       0.00000000
Si       0.67689000      19.98297000      20.11758500  F      121       0.00000000       0.00000000       0.00000000
Si      25.20815750      19.97970000      22.83931500  F      122       0.00000000       0.00000000       0.00000000
Si       0.67770750      17.25551750      22.84258500  F      123       0.00000000       0.00000000       0.00000000
Si      26.56793250      18.61720000      21.47790500  F      124       0.00000000       0.00000000       0.00000000
Si       2.04020750      21.34465250      21.47926750  F      125       0.00000000       0.00000000       0.00000000
Si       2.04048000      18.61774500      24.20426750  F      126       0.00000000       0.00000000       0.00000000
Si      26.56984000      21.34192750      24.20099750  F      127       0.00000000       0.00000000       0.00000000
Si       3.39235250      17.26205750      20.12439750  F      128       0.00000000       0.00000000       0.00000000
Si       6.11817000      19.99223500      20.12603250  F      129       0.00000000       0.00000000       0.00000000
Si       3.39998250      19.98433250      22.84476500  F      130       0.00000000       0.00000000       0.00000000
Si       6.11626250      17.26369250      22.85730000  F      131       0.00000000       0.00000000       0.00000000
Si       4.75921250      18.62292250      21.48553500  F      132       0.00000000       0.00000000       0.00000000
Si       7.48748250      21.35146500      21.48553500  F      133       0.00000000       0.00000000       0.00000000
Si       7.48775500      18.62265000      24.21298750  F      134       0.00000000       0.00000000       0.00000000
Si       4.76575250      21.34492500      24.20508500  F      135       0.00000000       0.00000000       0.00000000
Si       8.82872750      17.28167750      20.15709750  F      136       0.00000000       0.00000000       0.00000000
Si      11.57144000      20.01839500      20.15355500  F      137       0.00000000       0.00000000       0.00000000
Si       8.84671250      19.99414250      22.85730000  F      138       0.00000000       0.00000000       0.00000000
Si      11.57934250      17.27105000      22.85893500  F      139       0.00000000       0.00000000       0.00000000
Si      10.21084750      18.63872750      21.50352000  F      140       0.00000000       0.00000000       0.00000000
Si      12.94974500      21.36509000      21.49997750  F      141       0.00000000       0.00000000       0.00000000
Si      12.94838250      18.62728250      24.21435000  F      142       0.00000000       0.00000000       0.00000000
Si      10.21820500      21.35119250      24.21217000  F      143       0.00000000       0.00000000       0.00000000
Si      14.31660500      17.27977000      20.14183750  F      144       0.00000000       0.00000000       0.00000000
Si      17.04106000      19.98433250      20.11704000  F      145       0.00000000       0.00000000       0.00000000
Si      14.31142750      19.99169000      22.85321250  F      146       0.00000000       0.00000000       0.00000000
Si      17.04215000      17.25797000      22.84776250  F      147       0.00000000       0.00000000       0.00000000
Si      15.68101250      18.63300500      21.49561750  F      148       0.00000000       0.00000000       0.00000000
Si      18.40274250      21.34465250      21.47790500  F      149       0.00000000       0.00000000       0.00000000
Si      18.40356000      18.61938000      24.20617500  F      150       0.00000000       0.00000000       0.00000000
Si      15.67774250      21.34819500      24.20862750  F      151       0.00000000       0.00000000       0.00000000
Si      19.76824000      17.25579000      20.11622250  F      152       0.00000000       0.00000000       0.00000000
Si      22.48888000      19.97997250      20.11349750  F      153       0.00000000       0.00000000       0.00000000
Si      19.76388000      19.97970000      22.83931500  F      154       0.00000000       0.00000000       0.00000000
Si      22.48833500      17.25333750      22.83904250  F      155       0.00000000       0.00000000       0.00000000
Si      21.12801500      18.61829000      21.47736000  F      156       0.00000000       0.00000000       0.00000000
Si      23.84811000      21.34220000      21.47654250  F      157       0.00000000       0.00000000       0.00000000
Si      23.84811000      18.61638250      24.20072500  F      158       0.00000000       0.00000000       0.00000000
Si      21.12501750      21.34165500      24.20045250  F      159       0.00000000       0.00000000       0.00000000
Si      25.20843000      22.70497250      20.11431500  F      160       0.00000000       0.00000000       0.00000000
Si       0.68097750      25.42942750      20.11458750  F      161       0.00000000       0.00000000       0.00000000
Si      25.20897500      25.42779250      22.83768000  F      162       0.00000000       0.00000000       0.00000000
Si       0.68016000      22.70579000      22.84040500  F      163       0.00000000       0.00000000       0.00000000
Si      26.57011250      24.06665500      21.47627000  F      164       0.00000000       0.00000000       0.00000000
Si       2.04375000      26.79056500      21.47627000  F      165       0.00000000       0.00000000       0.00000000
Si       2.04347750      24.06692750      24.20127000  F      166       0.00000000       0.00000000       0.00000000
Si      26.57147500      26.78920250      24.19909000  F      167       0.00000000       0.00000000       0.00000000
Si       3.40025500      22.71015000      20.11867500  F      168       0.00000000       0.00000000       0.00000000
Si       6.12770750      25.43378750      20.11758500  F      169       0.00000000       0.00000000       0.00000000
Si       3.40461500      25.43024500      22.84040500  F      170       0.00000000       0.00000000       0.00000000
Si       6.12607250      22.71042250      22.84476500  F      171       0.00000000       0.00000000       0.00000000
Si       4.76575250      24.07047000      21.47926750  F      172       0.00000000       0.00000000       0.00000000
Si       7.49320500      26.79247250      21.47790500  F      173       0.00000000       0.00000000       0.00000000
Si       7.49266000      24.06992500      24.20426750  F      174       0.00000000       0.00000000       0.00000000
Si       4.76875000      26.79056500      24.20099750  F      175       0.00000000       0.00000000       0.00000000
Si       8.84834750      22.71805250      20.12439750  F      176       0.00000000       0.00000000       0.00000000
Si      11.58288500      25.42970000      20.11458750  F      177       0.00000000       0.00000000       0.00000000
Si       8.85488750      25.43297000      22.84258500  F      178       0.00000000       0.00000000       0.00000000
Si      11.57961500      22.71832500      22.85321250  F      179       0.00000000       0.00000000       0.00000000
Si      10.21847750      24.07428500      21.48281000  F      180       0.00000000       0.00000000       0.00000000
Si      12.94756500      26.78974750      21.47599750  F      181       0.00000000       0.00000000       0.00000000
Si      12.94865500      24.07346750      24.20835500  F      182       0.00000000       0.00000000       0.00000000
Si      10.22065750      26.79165500      24.20236000  F      183       0.00000000       0.00000000       0.00000000
Si      14.31115500      22.71260250      20.12085500  F      184       0.00000000       0.00000000       0.00000000
Si      17.03779000      25.42970000      20.11377000  F      185       0.00000000       0.00000000       0.00000000
Si      14.31088250      25.43024500      22.84013250  F      186       0.00000000       0.00000000       0.00000000
Si      17.03833500      22.70579000      22.83986000  F      187       0.00000000       0.00000000       0.00000000
Si      15.67610750      24.07074250      21.47954000  F      188       0.00000000       0.00000000       0.00000000
Si      18.40056250      26.78893000      21.47599750  F      189       0.00000000       0.00000000       0.00000000
Si      18.40110750      24.06611000      24.20018000  F      190       0.00000000       0.00000000       0.00000000
Si      15.67501750      26.78947500      24.20045250  F      191       0.00000000       0.00000000       0.00000000
Si      19.76415250      22.70551750      20.11349750  F      192       0.00000000       0.00000000       0.00000000
Si      22.48670000      25.42724750      20.11322500  F      193       0.00000000       0.00000000       0.00000000
Si      19.76251750      25.42697500      22.83740750  F      194       0.00000000       0.00000000       0.00000000
Si      22.48615500      22.70361000      22.83795250  F      195       0.00000000       0.00000000       0.00000000
Si      21.12501750      24.06611000      21.47599750  F      196       0.00000000       0.00000000       0.00000000
Si      23.84811000      26.78893000      21.47490750  F      197       0.00000000       0.00000000       0.00000000
Si      23.84783750      24.06529250      24.19936250  F      198       0.00000000       0.00000000       0.00000000
Si      21.12474500      26.78838500      24.19854500  F      199       0.00000000       0.00000000       0.00000000
Si      25.21006500       0.90034000      25.56022750  F      200       0.00000000       0.00000000       0.00000000
Si       0.68397500       3.62425000      25.56050000  F      201       0.00000000       0.00000000       0.00000000
Si      25.21142750       3.62316000       1.03250250  F      202       0.00000000       0.00000000       0.00000000
Si       0.68397500       0.90034000       1.03413750  F      203       0.00000000       0.00000000       0.00000000
Si      26.57283750       2.26147750      26.92163750  F      204       0.00000000       0.00000000       0.00000000
Si       2.04620250       4.98538750      26.92218250  F      205       0.00000000       0.00000000       0.00000000
Si       2.04647500       2.26147750       2.39527500  F      206       0.00000000       0.00000000       0.00000000
Si      26.57420000       4.98429750       2.39391250  F      207       0.00000000       0.00000000       0.00000000
Si       3.40679500       0.90170250      25.56186250  F      208       0.00000000       0.00000000       0.00000000
Si       6.13179500       3.62397750      25.56186250  F      209       0.00000000       0.00000000       0.00000000
Si       3.40788500       3.62370500       1.03413750  F      210       0.00000000       0.00000000       0.00000000
Si       6.13179500       0.90088500       1.03522750  F      211       0.00000000       0.00000000       0.00000000
Si       4.76984000       2.26229500      26.92327250  F      212       0.00000000       0.00000000       0.00000000
Si       7.49402250       4.98429750      26.92436250  F      213       0.00000000       0.00000000       0.00000000
Si       7.49456750       2.26147750       2.39609250  F      214       0.00000000       0.00000000       0.00000000
Si       4.76984000       4.98484250       2.39582000  F      215       0.00000000       0.00000000       0.00000000
Si       8.85679500       0.90143000      25.56268000  F      216       0.00000000       0.00000000       0.00000000
Si      11.58452000       3.62070750      25.56377000  F      217       0.00000000       0.00000000       0.00000000
Si       8.85706750       3.62234250       1.03413750  F      218       0.00000000       0.00000000       0.00000000
Si      11.58370250       0.89870500       1.03359250  F      219       0.00000000       0.00000000       0.00000000
Si      10.22038500       2.26066000      26.92409000  F      220       0.00000000       0.00000000       0.00000000
Si      12.94756500       4.98239000      26.92463500  F      221       0.00000000       0.00000000       0.00000000
Si      12.94892750       2.25657250       2.39227750  F      222       0.00000000       0.00000000       0.00000000
Si      10.22065750       4.98266250       2.39418500  F      223       0.00000000       0.00000000       0.00000000
Si      14.31115500       0.89979500      25.56131750  F      224       0.00000000       0.00000000       0.00000000
Si      17.03806250       3.62207000      25.55995500  F      225       0.00000000       0.00000000       0.00000000
Si      14.31170000       3.61934500       1.03250250  F      226       0.00000000       0.00000000       0.00000000
Si      17.03806250       0.89788750       1.03168500  F      227       0.00000000       0.00000000       0.00000000
Si      15.67529000       2.26011500      26.92109250  F      228       0.00000000       0.00000000       0.00000000
Si      18.40165250       4.98375250      26.92000250  F      229       0.00000000       0.00000000       0.00000000
Si      18.40274250       2.25793500       2.39146000  F      230       0.00000000       0.00000000       0.00000000
Si      15.67747000       4.97993750       2.39064250  F      231       0.00000000       0.00000000       0.00000000
Si      19.76251750       0.89925000      25.55968250  F      232       0.00000000       0.00000000       0.00000000
Si      22.48724500       3.62343250      25.55913750  F      233       0.00000000       0.00000000       0.00000000
Si      19.76415250       3.62125250       1.03086750  F      234       0.00000000       0.00000000       0.00000000
Si      22.48724500       0.89897750       1.03250250  F      235       0.00000000       0.00000000       0.00000000
Si      21.12583500       2.26038750      26.92000250  F      236       0.00000000       0.00000000       0.00000000
Si      23.85001750       4.98457000      26.92000250  F      237       0.00000000       0.00000000       0.00000000
Si      23.85083500       2.25957000       2.39336750  F      238       0.00000000       0.00000000       0.00000000
Si      21.12883250       4.98157250       2.39064250  F      239       0.00000000       0.00000000       0.00000000
Si      25.21115500       6.34788750      25.55968250  F      240       0.00000000       0.00000000       0.00000000
Si       0.68370250       9.07288750      25.56104500  F      241       0.00000000       0.00000000       0.00000000
Si      25.21251750       9.07234250       1.03168500  F      242       0.00000000       0.00000000       0.00000000
Si       0.68479250       6.34761500       1.03332000  F      243       0.00000000       0.00000000       0.00000000
Si      26.57311000       7.70957000      26.92136500  F      244       0.00000000       0.00000000       0.00000000
Si       2.04375000      10.43484250      26.92490750  F      245       0.00000000       0.00000000       0.00000000
Si       2.04647500       7.70929750       2.39554750  F      246       0.00000000       0.00000000       0.00000000
Si      26.57420000      10.43457000       2.39336750  F      247       0.00000000       0.00000000       0.00000000
Si       3.40734000       6.34788750      25.56159000  F      248       0.00000000       0.00000000       0.00000000
Si       6.12988750       9.07179750      25.56649500  F      249       0.00000000       0.00000000       0.00000000
Si       3.40706750       9.07234250       1.03495500  F      250       0.00000000       0.00000000       0.00000000
Si       6.13152250       6.34652500       1.03468250  F      251       0.00000000       0.00000000       0.00000000
Si       4.76847750       7.70875250      26.92490750  F      252       0.00000000       0.00000000       0.00000000
Si       7.49293250      10.43511500      26.92790500  F      253       0.00000000       0.00000000       0.00000000
Si       7.49375000       7.70848000       2.39500250  F      254       0.00000000       0.00000000       0.00000000
Si       4.76847750      10.43511500       2.39609250  F      255       0.00000000       0.00000000       0.00000000
Si       8.85706750       6.34570750      25.56486000  F      256       0.00000000       0.00000000       0.00000000
Si      11.58343000       9.07070750      25.56649500  F      257       0.00000000       0.00000000       0.00000000
Si       8.85761250       9.07234250       1.03686250  F      258       0.00000000       0.00000000       0.00000000
Si      11.58452000       6.34570750       1.03495500  F      259       0.00000000       0.00000000       0.00000000
Si      10.22011250       7.70875250      26.92599750  F      260       0.00000000       0.00000000       0.00000000
Si      12.94783750      10.43593250      26.92463500  F      261       0.00000000       0.00000000       0.00000000
Si      12.94892750       7.70766250       2.39445750  F      262       0.00000000       0.00000000       0.00000000
Si      10.22174750      10.43538750       2.39691000  F      263       0.00000000       0.00000000       0.00000000
Si      14.31251750       6.34352750      25.56567750  F      264       0.00000000       0.00000000       0.00000000
Si      17.03860750       9.07179750      25.56377000  F      265       0.00000000       0.00000000       0.00000000
Si      14.31170000       9.07207000       1.03441000  F      266       0.00000000       0.00000000       0.00000000
Si      17.03942500       6.34461750       1.03141250  F      267       0.00000000       0.00000000       0.00000000
Si      15.67529000       7.70875250      26.92381750  F      268       0.00000000       0.00000000       0.00000000
Si      18.40165250      10.43511500      26.92381750  F      269       0.00000000       0.00000000       0.00000000
Si      18.40519500       7.70521000       2.39009750  F      270       0.00000000       0.00000000       0.00000000
Si      15.67638000      10.43402500       2.39500250  F      271       0.00000000       0.00000000       0.00000000
Si      19.76333500       6.34707000      25.55941000  F      272       0.00000000       0.00000000       0.00000000
Si      22.48833500       9.07234250      25.55995500  F      273       0.00000000       0.00000000       0.00000000
Si      19.76578750       9.07098000       1.03141250  F      274       0.00000000       0.00000000       0.00000000
Si      22.48915250       6.34652500       1.03086750  F      275       0.00000000       0.00000000       0.00000000
Si      21.12665250       7.70902500      26.92000250  F      276       0.00000000       0.00000000       0.00000000
Si      23.85029000      10.43511500      26.92109250  F      277       0.00000000       0.00000000       0.00000000
Si      23.85247000       7.70766250       2.39146000  F      278       0.00000000       0.00000000       0.00000000
Si      21.13074000      10.43293500       2.39064250  F      279       0.00000000       0.00000000       0.00000000
Si      25.21061000      11.79925000      25.56131750  F      280       0.00000000       0.00000000       0.00000000
Si       0.67907000      14.52779250      25.56595000  F      281       0.00000000       0.00000000       0.00000000
Si      25.21170000      14.52697500       1.03359250  F      282       0.00000000       0.00000000       0.00000000
Si       0.68288500      11.79925000       1.03359250  F      283       0.00000000       0.00000000       0.00000000
Si      26.57038500      13.16202250      26.92381750  F      284       0.00000000       0.00000000       0.00000000
Si       2.04157000      15.89002000      26.92736000  F      285       0.00000000       0.00000000       0.00000000
Si       2.04293250      13.16256750       2.39473000  F      286       0.00000000       0.00000000       0.00000000
Si      26.57147500      15.88974750       2.39582000  F      287       0.00000000       0.00000000       0.00000000
Si       3.40298000      11.79952250      25.56704000  F      288       0.00000000       0.00000000       0.00000000
Si       6.12471000      14.52888250      25.57140000  F      289       0.00000000       0.00000000       0.00000000
Si       3.40488750      14.52724750       1.03740750  F      290       0.00000000       0.00000000       0.00000000
Si       6.13125000      11.79952250       1.03795250  F      291       0.00000000       0.00000000       0.00000000
Si       4.76575250      13.16229500      26.92899500  F      292       0.00000000       0.00000000       0.00000000
Si       7.49266000      15.89056500      26.92899500  F      293       0.00000000       0.00000000       0.00000000
Si       7.49538500      13.16229500       2.39854500  F      294       0.00000000       0.00000000       0.00000000
Si       4.76820500      15.89002000       2.39745500  F      295       0.00000000       0.00000000       0.00000000
Si       8.85379750      11.79925000      25.56867500  F      296       0.00000000       0.00000000       0.00000000
Si      11.58234000      14.52806500      25.56513250  F      297       0.00000000       0.00000000       0.00000000
Si       8.85788500      14.52643000       1.03795250  F      298       0.00000000       0.00000000       0.00000000
Si      11.58479250      11.79952250       1.03631750  F      299       0.00000000       0.00000000       0.00000000
Si      10.22038500      13.16311250      26.92627000  F      300       0.00000000       0.00000000       0.00000000
Si      12.94729250      15.89002000      26.92627000  F      301       0.00000000       0.00000000       0.00000000
Si      12.94892750      13.16147750       2.39800000  F      302       0.00000000       0.00000000       0.00000000
Si      10.22174750      15.88865750       2.39909000  F      303       0.00000000       0.00000000       0.00000000
Si      14.31061000      11.79979500      25.56295250  F      304       0.00000000       0.00000000       0.00000000
Si      17.03969750      14.52697500      25.56649500  F      305       0.00000000       0.00000000       0.00000000
Si      14.31115500      14.52561250       1.03631750  F      306       0.00000000       0.00000000       0.00000000
Si      17.03833500      11.79870500       1.03441000  F      307       0.00000000       0.00000000       0.00000000
Si      15.67447250      13.16256750      26.92463500  F      308       0.00000000       0.00000000       0.00000000
Si      18.40192500      15.89029250      26.92599750  F      309       0.00000000       0.00000000       0.00000000
Si      18.40274250      13.16147750       2.39445750  F      310       0.00000000       0.00000000       0.00000000
Si      15.67501750      15.88865750       2.39691000  F      311       0.00000000       0.00000000       0.00000000
Si      19.76687750      11.79816000      25.56567750  F      312       0.00000000       0.00000000       0.00000000
Si      22.48969750      14.52615750      25.56377000  F      313       0.00000000       0.00000000       0.00000000
Si      19.76497000      14.52588500       1.03495500  F      314       0.00000000       0.00000000       0.00000000
Si      22.49106000      11.79870500       1.03250250  F      315       0.00000000       0.00000000       0.00000000
Si      21.12801500      13.16284000      26.92463500  F      316       0.00000000       0.00000000       0.00000000
Si      23.84974500      15.89002000      26.92409000  F      317       0.00000000       0.00000000       0.00000000
Si      23.85383250      13.16175000       2.39227750  F      318       0.00000000       0.00000000       0.00000000
Si      21.12801500      15.88974750       2.39418500  F      319       0.00000000       0.00000000       0.00000000
Si      25.20897500      17.25361000      25.56268000  F      320       0.00000000       0.00000000       0.00000000
Si       0.68070500      19.98024500      25.56431500  F      321       0.00000000       0.00000000       0.00000000
Si      25.20952000      19.97861000       1.03522750  F      322       0.00000000       0.00000000       0.00000000
Si       0.68179500      17.25388250       1.03659000  F      323       0.00000000       0.00000000       0.00000000
Si      26.57038500      18.61611000      26.92436250  F      324       0.00000000       0.00000000       0.00000000
Si       2.04375000      21.34192750      26.92518000  F      325       0.00000000       0.00000000       0.00000000
Si       2.04429500      18.61611000       2.39745500  F      326       0.00000000       0.00000000       0.00000000
Si      26.57174750      21.34056500       2.39663750  F      327       0.00000000       0.00000000       0.00000000
Si       3.40080000      17.25660750      25.56922000  F      328       0.00000000       0.00000000       0.00000000
Si       6.12634500      19.98406000      25.57031000  F      329       0.00000000       0.00000000       0.00000000
Si       3.40516000      19.98024500       1.03768000  F      330       0.00000000       0.00000000       0.00000000
Si       6.13016000      17.25415500       1.03795250  F      331       0.00000000       0.00000000       0.00000000
Si       4.76629750      18.61774500      26.92872250  F      332       0.00000000       0.00000000       0.00000000
Si       7.49293250      21.34438000      26.92872250  F      333       0.00000000       0.00000000       0.00000000
Si       7.49347750      18.61692750       2.39772750  F      334       0.00000000       0.00000000       0.00000000
Si       4.76847750      21.34220000       2.39772750  F      335       0.00000000       0.00000000       0.00000000
Si       8.85379750      17.25688000      25.56976500  F      336       0.00000000       0.00000000       0.00000000
Si      11.58152250      19.98569500      25.57140000  F      337       0.00000000       0.00000000       0.00000000
Si       8.85625000      19.98024500       1.03795250  F      338       0.00000000       0.00000000       0.00000000
Si      11.58397500      17.25279250       1.03795250  F      339       0.00000000       0.00000000       0.00000000
Si      10.21984000      18.61774500      26.92899500  F      340       0.00000000       0.00000000       0.00000000
Si      12.94811000      21.34465250      26.92899500  F      341       0.00000000       0.00000000       0.00000000
Si      12.94811000      18.61529250       2.39854500  F      342       0.00000000       0.00000000       0.00000000
Si      10.22038500      21.34220000       2.39745500  F      343       0.00000000       0.00000000       0.00000000
Si      14.31115500      17.25660750      25.56867500  F      344       0.00000000       0.00000000       0.00000000
Si      17.03860750      19.98051750      25.56649500  F      345       0.00000000       0.00000000       0.00000000
Si      14.31088250      19.97915500       1.03795250  F      346       0.00000000       0.00000000       0.00000000
Si      17.03806250      17.25279250       1.03686250  F      347       0.00000000       0.00000000       0.00000000
Si      15.67529000      18.61774500      26.92790500  F      348       0.00000000       0.00000000       0.00000000
Si      18.40165250      21.34220000      26.92490750  F      349       0.00000000       0.00000000       0.00000000
Si      18.40192500      18.61665500       2.39500250  F      350       0.00000000       0.00000000       0.00000000
Si      15.67529000      21.34220000       2.39609250  F      351       0.00000000       0.00000000       0.00000000
Si      19.76469750      17.25333750      25.56486000  F      352       0.00000000       0.00000000       0.00000000
Si      22.48642750      19.97861000      25.56186250  F      353       0.00000000       0.00000000       0.00000000
Si      19.76388000      19.97888250       1.03468250  F      354       0.00000000       0.00000000       0.00000000
Si      22.48806250      17.25333750       1.03413750  F      355       0.00000000       0.00000000       0.00000000
Si      21.12610750      18.61638250      26.92436250  F      356       0.00000000       0.00000000       0.00000000
Si      23.84811000      21.34056500      26.92327250  F      357       0.00000000       0.00000000       0.00000000
Si      23.84892750      18.61583750       2.39609250  F      358       0.00000000       0.00000000       0.00000000
Si      21.12556250      21.34056500       2.39582000  F      359       0.00000000       0.00000000       0.00000000
Si      25.20897500      22.70361000      25.56186250  F      360       0.00000000       0.00000000       0.00000000
Si       0.68234000      25.42806500      25.56213500  F      361       0.00000000       0.00000000       0.00000000
Si      25.21006500      25.42643000       1.03413750  F      362       0.00000000       0.00000000       0.00000000
Si       0.68261250      22.70361000       1.03577250  F      363       0.00000000       0.00000000       0.00000000
Si      26.57147500      24.06502000      26.92300000  F      364       0.00000000       0.00000000       0.00000000
Si       2.04538500      26.78893000      26.92300000  F      365       0.00000000       0.00000000       0.00000000
Si       2.04538500      24.06502000       2.39663750  F      366       0.00000000       0.00000000       0.00000000
Si      26.57283750      26.78756750       2.39527500  F      367       0.00000000       0.00000000       0.00000000
Si       3.40461500      22.70606250      25.56486000  F      368       0.00000000       0.00000000       0.00000000
Si       6.13016000      25.42997250      25.56431500  F      369       0.00000000       0.00000000       0.00000000
Si       3.40679500      25.42779250       1.03577250  F      370       0.00000000       0.00000000       0.00000000
Si       6.13016000      22.70524500       1.03768000  F      371       0.00000000       0.00000000       0.00000000
Si       4.76875000      24.06665500      26.92518000  F      372       0.00000000       0.00000000       0.00000000
Si       7.49429500      26.79002000      26.92436250  F      373       0.00000000       0.00000000       0.00000000
Si       7.49429500      24.06611000       2.39745500  F      374       0.00000000       0.00000000       0.00000000
Si       4.76984000      26.78865750       2.39663750  F      375       0.00000000       0.00000000       0.00000000
Si       8.85407000      22.70960500      25.56922000  F      376       0.00000000       0.00000000       0.00000000
Si      11.58288500      25.43160750      25.56595000  F      377       0.00000000       0.00000000       0.00000000
Si       8.85652250      25.42861000       1.03659000  F      378       0.00000000       0.00000000       0.00000000
Si      11.58343000      22.70551750       1.03740750  F      379       0.00000000       0.00000000       0.00000000
Si      10.22038500      24.06883500      26.92736000  F      380       0.00000000       0.00000000       0.00000000
Si      12.94838250      26.79002000      26.92381750  F      381       0.00000000       0.00000000       0.00000000
Si      12.94783750      24.06774500       2.39473000  F      382       0.00000000       0.00000000       0.00000000
Si      10.22065750      26.78893000       2.39582000  F      383       0.00000000       0.00000000       0.00000000
Si      14.31088250      22.70742500      25.56704000  F      384       0.00000000       0.00000000       0.00000000
Si      17.03751750      25.42670250      25.56104500  F      385       0.00000000       0.00000000       0.00000000
Si      14.31142750      25.42752000       1.03359250  F      386       0.00000000       0.00000000       0.00000000
Si      17.03806250      22.70333750       1.03495500  F      387       0.00000000       0.00000000       0.00000000
Si      15.67583500      24.06665500      26.92490750  F      388       0.00000000       0.00000000       0.00000000
Si      18.40083500      26.78729500      26.92136500  F      389       0.00000000       0.00000000       0.00000000
Si      18.40110750      24.06393000       2.39554750  F      390       0.00000000       0.00000000       0.00000000
Si      15.67583500      26.78620500       2.39336750  F      391       0.00000000       0.00000000       0.00000000
Si      19.76251750      22.70306500      25.56159000  F      392       0.00000000       0.00000000       0.00000000
Si      22.48615500      25.42670250      25.56050000  F      393       0.00000000       0.00000000       0.00000000
Si      19.76279000      25.42561250       1.03332000  F      394       0.00000000       0.00000000       0.00000000
Si      22.48670000      22.70252000       1.03413750  F      395       0.00000000       0.00000000       0.00000000
Si      21.12501750      24.06447500      26.92218250  F      396       0.00000000       0.00000000       0.00000000
Si      23.84892750      26.78784000      26.92163750  F      397       0.00000000       0.00000000       0.00000000
Si      23.84920000      24.06393000       2.39527500  F      398       0.00000000       0.00000000       0.00000000
Si      21.12610750      26.78620500       2.39391250  F      399       0.00000000       0.00000000       0.00000000
Si      25.21170000       0.89870500       3.75641250  F      400       0.00000000       0.00000000       0.00000000
Si       0.68533750       3.62288750       3.75641250  F      401       0.00000000       0.00000000       0.00000000
Si      25.21388000       3.62043500       6.47950500  F      402       0.00000000       0.00000000       0.00000000
Si       0.68506500       0.89870500       6.48114000  F      403       0.00000000       0.00000000       0.00000000
Si      26.57447250       2.25984250       5.11782250  F      404       0.00000000       0.00000000       0.00000000
Si       2.04702000       4.98429750       5.11836750  F      405       0.00000000       0.00000000       0.00000000
Si       2.04674750       2.26038750       7.84282250  F      406       0.00000000       0.00000000       0.00000000
Si      26.57610750       4.98184500       7.84118750  F      407       0.00000000       0.00000000       0.00000000
Si       3.40788500       0.89979500       3.75750250  F      408       0.00000000       0.00000000       0.00000000
Si       6.13179500       3.62261500       3.75695750  F      409       0.00000000       0.00000000       0.00000000
Si       3.40788500       3.62234250       6.48059500  F      410       0.00000000       0.00000000       0.00000000
Si       6.13097750       0.89843250       6.48032250  F      411       0.00000000       0.00000000       0.00000000
Si       4.76984000       2.26093250       5.11891250  F      412       0.00000000       0.00000000       0.00000000
Si       7.49402250       4.98320750       5.11782250  F      413       0.00000000       0.00000000       0.00000000
Si       7.49375000       2.25711750       7.84227750  F      414       0.00000000       0.00000000       0.00000000
Si       4.76902250       4.98320750       7.84282250  F      415       0.00000000       0.00000000       0.00000000
Si       8.85679500       0.89870500       3.75641250  F      416       0.00000000       0.00000000       0.00000000
Si      11.58288500       3.61525750       3.75069000  F      417       0.00000000       0.00000000       0.00000000
Si       8.85488750       3.61662000       6.47732500  F      418       0.00000000       0.00000000       0.00000000
Si      11.58370250       0.89489000       6.47841500  F      419       0.00000000       0.00000000       0.00000000
Si      10.22065750       2.25739000       5.11700500  F      420       0.00000000       0.00000000       0.00000000
Si      12.95110750       4.97094500       5.10610500  F      421       0.00000000       0.00000000       0.00000000
Si      12.94974500       2.25275750       7.83737250  F      422       0.00000000       0.00000000       0.00000000
Si      10.21902250       4.97448750       7.83601000  F      423       0.00000000       0.00000000       0.00000000
Si      14.31170000       0.89489000       3.75314250  F      424       0.00000000       0.00000000       0.00000000
Si      17.04024250       3.61716500       3.75178000  F      425       0.00000000       0.00000000       0.00000000
Si      14.31306250       3.60871750       6.46915000  F      426       0.00000000       0.00000000       0.00000000
Si      17.03997000       0.89380000       6.47732500  F      427       0.00000000       0.00000000       0.00000000
Si      15.67856000       2.25221250       5.11155500  F      428       0.00000000       0.00000000       0.00000000
Si      18.40819250       4.97585000       5.10992000  F      429       0.00000000       0.00000000       0.00000000
Si      18.40710250       2.25112250       7.83737250  F      430       0.00000000       0.00000000       0.00000000
Si      15.68700750       4.96113500       7.82320250  F      431       0.00000000       0.00000000       0.00000000
Si      19.76442500       0.89707000       3.75450500  F      432       0.00000000       0.00000000       0.00000000
Si      22.48969750       3.62070750       3.75423250  F      433       0.00000000       0.00000000       0.00000000
Si      19.76824000       3.61607500       6.47623500  F      434       0.00000000       0.00000000       0.00000000
Si      22.48997000       0.89652500       6.47950500  F      435       0.00000000       0.00000000       0.00000000
Si      21.12910500       2.25684500       5.11509750  F      436       0.00000000       0.00000000       0.00000000
Si      23.85383250       4.98130000       5.11509750  F      437       0.00000000       0.00000000       0.00000000
Si      23.85328750       2.25711750       7.84091500  F      438       0.00000000       0.00000000       0.00000000
Si      21.13482750       4.97557750       7.83628250  F      439       0.00000000       0.00000000       0.00000000
Si      25.21333500       6.34598000       3.75450500  F      440       0.00000000       0.00000000       0.00000000
Si       0.68506500       9.07207000       3.75559500  F      441       0.00000000       0.00000000       0.00000000
Si      25.21660500       9.07043500       6.47732500  F      442       0.00000000       0.00000000       0.00000000
Si       0.68533750       6.34570750       6.47950500  F      443       0.00000000       0.00000000       0.00000000
Si      26.57556250       7.70793500       5.11618750  F      444       0.00000000       0.00000000       0.00000000
Si       2.04429500      10.43538750       5.11782250  F      445       0.00000000       0.00000000       0.00000000
Si       2.04429500       7.70848000       7.84227750  F      446       0.00000000       0.00000000       0.00000000
Si      26.57420000      10.43457000       7.84227750  F      447       0.00000000       0.00000000       0.00000000
Si       3.40815750       6.34679750       3.75695750  F      448       0.00000000       0.00000000       0.00000000
Si       6.13070500       9.07070750       3.75559500  F      449       0.00000000       0.00000000       0.00000000
Si       3.40434250       9.07043500       6.47868750  F      450       0.00000000       0.00000000       0.00000000
Si       6.13070500       6.34516250       6.47950500  F      451       0.00000000       0.00000000       0.00000000
Si       4.76902250       7.70902500       5.11836750  F      452       0.00000000       0.00000000       0.00000000
Si       7.49266000      10.43293500       5.11509750  F      453       0.00000000       0.00000000       0.00000000
Si       7.49238750       7.70630000       7.84009750  F      454       0.00000000       0.00000000       0.00000000
Si       4.76302750      10.43375250       7.83900750  F      455       0.00000000       0.00000000       0.00000000
Si       8.85570500       6.34407250       3.75396000  F      456       0.00000000       0.00000000       0.00000000
Si      11.58506500       9.06989000       3.75559500  F      457       0.00000000       0.00000000       0.00000000
Si       8.85597750       9.06689250       6.47405500  F      458       0.00000000       0.00000000       0.00000000
Si      11.58043250       6.32527000       6.46015750  F      459       0.00000000       0.00000000       0.00000000
Si      10.21984000       7.70384750       5.11237250  F      460       0.00000000       0.00000000       0.00000000
Si      12.95110750      10.42993750       5.11646000  F      461       0.00000000       0.00000000       0.00000000
Si      12.95683000       7.67223750       7.80794250  F      462       0.00000000       0.00000000       0.00000000
Si      10.21875000      10.42557750       7.83573750  F      463       0.00000000       0.00000000       0.00000000
Si      14.31333500       6.33944000       3.74932750  F      464       0.00000000       0.00000000       0.00000000
Si      17.04324000       9.06716500       3.74905500  F      465       0.00000000       0.00000000       0.00000000
Si      14.31933000       9.05381250       6.46206500  F      466       0.00000000       0.00000000       0.00000000
Si      17.04651000       6.33426250       6.46806000  F      467       0.00000000       0.00000000       0.00000000
Si      15.68346500       7.69703500       5.10528750  F      468       0.00000000       0.00000000       0.00000000
Si      18.41337000      10.42694000       5.10528750  F      469       0.00000000       0.00000000       0.00000000
Si      18.41827500       7.69213000       7.82483750  F      470       0.00000000       0.00000000       0.00000000
Si      15.69927000      10.41140750       7.81094000  F      471       0.00000000       0.00000000       0.00000000
Si      19.76796750       6.34243750       3.75069000  F      472       0.00000000       0.00000000       0.00000000
Si      22.49324000       9.07043500       3.75178000  F      473       0.00000000       0.00000000       0.00000000
Si      19.77641500       9.06389500       6.46806000  F      474       0.00000000       0.00000000       0.00000000
Si      22.49433000       6.34216500       6.47623500  F      475       0.00000000       0.00000000       0.00000000
Si      21.13455500       7.70221250       5.10992000  F      476       0.00000000       0.00000000       0.00000000
Si      23.85819250      10.43211750       5.11155500  F      477       0.00000000       0.00000000       0.00000000
Si      23.85928250       7.70330250       7.83737250  F      478       0.00000000       0.00000000       0.00000000
Si      21.14927000      10.42339750       7.82320250  F      479       0.00000000       0.00000000       0.00000000
Si      25.21578750      11.79897750       3.75314250  F      480       0.00000000       0.00000000       0.00000000
Si       0.68261250      14.52643000       3.75559500  F      481       0.00000000       0.00000000       0.00000000
Si      25.21578750      14.52670250       6.47841500  F      482       0.00000000       0.00000000       0.00000000
Si       0.68370250      11.79843250       6.48005000  F      483       0.00000000       0.00000000       0.00000000
Si      26.57447250      13.16202250       5.11700500  F      484       0.00000000       0.00000000       0.00000000
Si       2.04184250      15.89056500       5.11646000  F      485       0.00000000       0.00000000       0.00000000
Si       2.04266000      13.16284000       7.84173250  F      486       0.00000000       0.00000000       0.00000000
Si      26.57420000      15.88974750       7.84336750  F      487       0.00000000       0.00000000       0.00000000
Si       3.40352500      11.79816000       3.75396000  F      488       0.00000000       0.00000000       0.00000000
Si       6.13070500      14.52643000       3.75723000  F      489       0.00000000       0.00000000       0.00000000
Si       3.40052750      14.52588500       6.47541750  F      490       0.00000000       0.00000000       0.00000000
Si       6.11926000      11.79434500       6.46806000  F      491       0.00000000       0.00000000       0.00000000
Si       4.76221000      13.16338500       5.11237250  F      492       0.00000000       0.00000000       0.00000000
Si       7.49293250      15.89111000       5.11727750  F      493       0.00000000       0.00000000       0.00000000
Si       7.47140500      13.16583750       7.82075000  F      494       0.00000000       0.00000000       0.00000000
Si       4.75621500      15.89519750       7.83355750  F      495       0.00000000       0.00000000       0.00000000
Si       8.85870250      11.79816000       3.75886500  F      496       0.00000000       0.00000000       0.00000000
Si      11.58588250      14.52479500       3.76022750  F      497       0.00000000       0.00000000       0.00000000
Si       8.85461500      14.52697500       6.47705250  F      498       0.00000000       0.00000000       0.00000000
Si       7.46023250      15.90228250      10.54384250  F      499       0.00000000       0.00000000       0.00000000
Si      10.22256500      13.16038750       5.12136500  F      500       0.00000000       0.00000000       0.00000000
Si      12.95001750      15.88811250       5.12136500  F      501       0.00000000       0.00000000       0.00000000
Si      10.21902250      15.89138250       7.83791750  F      502       0.00000000       0.00000000       0.00000000
Si      14.31769500      14.52343250       6.47950500  F      503       0.00000000       0.00000000       0.00000000
Si      14.31360750      11.79679750       3.75723000  F      504       0.00000000       0.00000000       0.00000000
Si      17.04051500      14.52534000       3.75559500  F      505       0.00000000       0.00000000       0.00000000
Si      11.58724500      11.79271000       6.47950500  F      506       0.00000000       0.00000000       0.00000000
Si      17.05659250      11.79134750       6.46206500  F      507       0.00000000       0.00000000       0.00000000
Si      15.68046750      13.15929750       5.11646000  F      508       0.00000000       0.00000000       0.00000000
Si      18.40683000      15.89056500       5.11237250  F      509       0.00000000       0.00000000       0.00000000
Si      18.43816750      13.15357500       7.80794250  F      510       0.00000000       0.00000000       0.00000000
Si      15.68482750      15.89165500       7.83573750  F      511       0.00000000       0.00000000       0.00000000
Si      19.77096500      11.79734250       3.74932750  F      512       0.00000000       0.00000000       0.00000000
Si      22.49542000      14.52752000       3.75069000  F      513       0.00000000       0.00000000       0.00000000
Si      19.78513500      14.52997250       6.46015750  F      514       0.00000000       0.00000000       0.00000000
Si      22.50196000      11.79734250       6.46915000  F      515       0.00000000       0.00000000       0.00000000
Si      21.13946000      13.15929750       5.10610500  F      516       0.00000000       0.00000000       0.00000000
Si      23.85328750      15.88974750       5.11700500  F      517       0.00000000       0.00000000       0.00000000
Si      23.85792000      13.16066000       7.83737250  F      518       0.00000000       0.00000000       0.00000000
Si      21.13591750      15.89138250       7.83601000  F      519       0.00000000       0.00000000       0.00000000
Si      25.21170000      17.25361000       3.75641250  F      520       0.00000000       0.00000000       0.00000000
Si       0.68343000      19.97888250       3.75832000  F      521       0.00000000       0.00000000       0.00000000
Si      25.21197250      19.97942750       6.48032250  F      522       0.00000000       0.00000000       0.00000000
Si       0.68234000      17.25333750       6.47977750  F      523       0.00000000       0.00000000       0.00000000
Si      26.57202000      18.61611000       5.11864000  F      524       0.00000000       0.00000000       0.00000000
Si       2.04511250      21.34138250       5.11945750  F      525       0.00000000       0.00000000       0.00000000
Si       2.04075250      18.61883500       7.84118750  F      526       0.00000000       0.00000000       0.00000000
Si      26.57174750      21.34192750       7.84282250  F      527       0.00000000       0.00000000       0.00000000
Si       3.40625000      17.25333750       3.75777500  F      528       0.00000000       0.00000000       0.00000000
Si       6.13070500      19.97970000       3.75777500  F      529       0.00000000       0.00000000       0.00000000
Si       3.40597750      19.97942750       6.48114000  F      530       0.00000000       0.00000000       0.00000000
Si       6.12852500      17.25470000       6.47787000  F      531       0.00000000       0.00000000       0.00000000
Si       4.76766000      18.61774500       5.11809500  F      532       0.00000000       0.00000000       0.00000000
Si       7.49293250      21.34301750       5.11809500  F      533       0.00000000       0.00000000       0.00000000
Si       7.49048000      18.61992500       7.83846250  F      534       0.00000000       0.00000000       0.00000000
Si       4.76738750      21.34329000       7.84255000  F      535       0.00000000       0.00000000       0.00000000
Si       8.85679500      17.25361000       3.75695750  F      536       0.00000000       0.00000000       0.00000000
Si      11.58397500      19.97970000       3.75723000  F      537       0.00000000       0.00000000       0.00000000
Si       8.85570500      19.98215250       6.47787000  F      538       0.00000000       0.00000000       0.00000000
Si      12.95846500      13.15194000       7.83873500  F      539       0.00000000       0.00000000       0.00000000
Si      10.21929500      18.61747250       5.11727750  F      540       0.00000000       0.00000000       0.00000000
Si      12.94702000      21.34819500       5.11237250  F      541       0.00000000       0.00000000       0.00000000
Si      12.94456750      18.63927250       7.82075000  F      542       0.00000000       0.00000000       0.00000000
Si      10.21520750      21.35446250       7.83355750  F      543       0.00000000       0.00000000       0.00000000
Si      14.31224500      17.25170250       3.75886500  F      544       0.00000000       0.00000000       0.00000000
Si      17.03969750      19.97970000       3.75559500  F      545       0.00000000       0.00000000       0.00000000
Si      14.31606000      19.99114500       6.46806000  F      546       0.00000000       0.00000000       0.00000000
Si      17.04351250      17.25442750       6.47405500  F      547       0.00000000       0.00000000       0.00000000
Si      15.67747000      18.61801750       5.11509750  F      548       0.00000000       0.00000000       0.00000000
Si      18.40165250      21.34138250       5.11836750  F      549       0.00000000       0.00000000       0.00000000
Si      18.40410500      18.61829000       7.84009750  F      550       0.00000000       0.00000000       0.00000000
Si      15.67665250      21.34737750       7.83900750  F      551       0.00000000       0.00000000       0.00000000
Si      19.76633250      17.25470000       3.75396000  F      552       0.00000000       0.00000000       0.00000000
Si      22.48779000      19.97888250       3.75695750  F      553       0.00000000       0.00000000       0.00000000
Si      19.76551500      19.97970000       6.47950500  F      554       0.00000000       0.00000000       0.00000000
Si      22.49378500      17.25551750       6.47732500  F      555       0.00000000       0.00000000       0.00000000
Si      21.12747000      18.61638250       5.11782250  F      556       0.00000000       0.00000000       0.00000000
Si      23.84947250      21.34056500       5.11891250  F      557       0.00000000       0.00000000       0.00000000
Si      23.85328750      18.61692750       7.84227750  F      558       0.00000000       0.00000000       0.00000000
Si      21.12719750      21.34165500       7.84282250  F      559       0.00000000       0.00000000       0.00000000
Si      25.21061000      22.70252000       3.75750250  F      560       0.00000000       0.00000000       0.00000000
Si       0.68397500      25.42643000       3.75777500  F      561       0.00000000       0.00000000       0.00000000
Si      25.21170000      25.42534000       6.48114000  F      562       0.00000000       0.00000000       0.00000000
Si       0.68397500      22.70306500       6.48141250  F      563       0.00000000       0.00000000       0.00000000
Si      26.57256500      24.06420250       5.11918500  F      564       0.00000000       0.00000000       0.00000000
Si       2.04620250      26.78784000       5.11918500  F      565       0.00000000       0.00000000       0.00000000
Si       2.04511250      24.06529250       7.84309500  F      566       0.00000000       0.00000000       0.00000000
Si      26.57365500      26.78675000       7.84282250  F      567       0.00000000       0.00000000       0.00000000
Si       3.40679500      22.70361000       3.75859250  F      568       0.00000000       0.00000000       0.00000000
Si       6.13152250      25.42697500       3.75832000  F      569       0.00000000       0.00000000       0.00000000
Si       3.40734000      25.42643000       6.48141250  F      570       0.00000000       0.00000000       0.00000000
Si       6.13097750      22.70442750       6.48114000  F      571       0.00000000       0.00000000       0.00000000
Si       4.76902250      24.06556500       5.11945750  F      572       0.00000000       0.00000000       0.00000000
Si       7.49429500      26.78838500       5.11864000  F      573       0.00000000       0.00000000       0.00000000
Si       7.49184250      24.06965250       7.84118750  F      574       0.00000000       0.00000000       0.00000000
Si       4.76847750      26.78893000       7.84282250  F      575       0.00000000       0.00000000       0.00000000
Si       8.85706750      22.70442750       3.75777500  F      576       0.00000000       0.00000000       0.00000000
Si      11.58397500      25.42779250       3.75559500  F      577       0.00000000       0.00000000       0.00000000
Si       8.85706750      25.42806500       6.47977750  F      578       0.00000000       0.00000000       0.00000000
Si      11.58452000      22.70987750       6.47541750  F      579       0.00000000       0.00000000       0.00000000
Si      10.21984000      24.06856250       5.11646000  F      580       0.00000000       0.00000000       0.00000000
Si      12.94838250      26.78620500       5.11700500  F      581       0.00000000       0.00000000       0.00000000
Si      12.94756500      24.06774500       7.84173250  F      582       0.00000000       0.00000000       0.00000000
Si      10.22093000      26.78620500       7.84336750  F      583       0.00000000       0.00000000       0.00000000
Si      14.31224500      22.70715250       3.75396000  F      584       0.00000000       0.00000000       0.00000000
Si      17.03833500      25.42561250       3.75559500  F      585       0.00000000       0.00000000       0.00000000
Si      14.31197250      25.42670250       6.48005000  F      586       0.00000000       0.00000000       0.00000000
Si      17.03997000      22.70633500       6.47868750  F      587       0.00000000       0.00000000       0.00000000
Si      15.67529000      24.06611000       5.11782250  F      588       0.00000000       0.00000000       0.00000000
Si      18.40274250      26.78484250       5.11618750  F      589       0.00000000       0.00000000       0.00000000
Si      18.40219750      24.06638250       7.84227750  F      590       0.00000000       0.00000000       0.00000000
Si      15.67583500      26.78620500       7.84227750  F      591       0.00000000       0.00000000       0.00000000
Si      19.76360750      22.70252000       3.75695750  F      592       0.00000000       0.00000000       0.00000000
Si      22.48779000      25.42506750       3.75641250  F      593       0.00000000       0.00000000       0.00000000
Si      19.76497000      25.42506750       6.47950500  F      594       0.00000000       0.00000000       0.00000000
Si      22.48833500      22.70252000       6.48059500  F      595       0.00000000       0.00000000       0.00000000
Si      21.12610750      24.06338500       5.11836750  F      596       0.00000000       0.00000000       0.00000000
Si      23.85083500      26.78593250       5.11782250  F      597       0.00000000       0.00000000       0.00000000
Si      23.85001750      24.06365750       7.84282250  F      598       0.00000000       0.00000000       0.00000000
Si      21.12856000      26.78429750       7.84118750  F      599       0.00000000       0.00000000       0.00000000
Si      25.21333500       0.89734250       9.20559500  F      600       0.00000000       0.00000000       0.00000000
Si       0.68533750       3.62098000       9.20532250  F      601       0.00000000       0.00000000       0.00000000
Si      25.21606000       3.61825500      11.93223000  F      602       0.00000000       0.00000000       0.00000000
Si       0.68370250       0.89788750      11.93223000  F      603       0.00000000       0.00000000       0.00000000
Si      26.57501750       2.25848000      10.56809500  F      604       0.00000000       0.00000000       0.00000000
Si       2.04456750       4.98293500      10.56891250  F      605       0.00000000       0.00000000       0.00000000
Si       2.04293250       2.25820750      13.29663750  F      606       0.00000000       0.00000000       0.00000000
Si      26.57392750       4.98293500      13.29582000  F      607       0.00000000       0.00000000       0.00000000
Si       3.40679500       0.89870500       9.20559500  F      608       0.00000000       0.00000000       0.00000000
Si       6.12934250       3.61771000       9.20341500  F      609       0.00000000       0.00000000       0.00000000
Si       3.40216250       3.61689250      11.93114000  F      610       0.00000000       0.00000000       0.00000000
Si       6.13070500       0.89816000      11.93250250  F      611       0.00000000       0.00000000       0.00000000
Si       4.76793250       2.25848000      10.56891250  F      612       0.00000000       0.00000000       0.00000000
Si       7.49048000       4.97666750      10.56537000  F      613       0.00000000       0.00000000       0.00000000
Si       7.49293250       2.25793500      13.29554750  F      614       0.00000000       0.00000000       0.00000000
Si       4.75948500       4.97448750      13.29691000  F      615       0.00000000       0.00000000       0.00000000
Si       8.85679500       0.89625250       9.20532250  F      616       0.00000000       0.00000000       0.00000000
Si      11.58261250       3.61035250       9.19660250  F      617       0.00000000       0.00000000       0.00000000
Si       8.85488750       3.61580250      11.92841500  F      618       0.00000000       0.00000000       0.00000000
Si      11.58479250       0.89843250      11.93250250  F      619       0.00000000       0.00000000       0.00000000
Si      10.22038500       2.25575500      10.56673250  F      620       0.00000000       0.00000000       0.00000000
Si      12.95274250       4.96549500      10.55147250  F      621       0.00000000       0.00000000       0.00000000
Si      12.94947250       2.26011500      13.29445750  F      622       0.00000000       0.00000000       0.00000000
Si      10.21820500       4.97585000      13.28900750  F      623       0.00000000       0.00000000       0.00000000
Si      14.31224500       0.89570750       9.20505000  F      624       0.00000000       0.00000000       0.00000000
Si      17.04542000       3.60817250       9.19796500  F      625       0.00000000       0.00000000       0.00000000
Si      14.31578750       3.61689250      11.92868750  F      626       0.00000000       0.00000000       0.00000000
Si      17.03969750       0.89543500      11.93195750  F      627       0.00000000       0.00000000       0.00000000
Si      15.67856000       2.25521000      10.56646000  F      628       0.00000000       0.00000000       0.00000000
Si      18.41773000       4.96249750      10.55719500  F      629       0.00000000       0.00000000       0.00000000
Si      18.40519500       2.25521000      13.29418500  F      630       0.00000000       0.00000000       0.00000000
Si      15.68482750       4.97503250      13.29227750  F      631       0.00000000       0.00000000       0.00000000
Si      19.76742250       0.89325500       9.20396000  F      632       0.00000000       0.00000000       0.00000000
Si      22.49378500       3.61662000       9.20368750  F      633       0.00000000       0.00000000       0.00000000
Si      19.77505250       3.60844500      11.92923250  F      634       0.00000000       0.00000000       0.00000000
Si      22.49215000       0.89434500      11.93223000  F      635       0.00000000       0.00000000       0.00000000
Si      21.13319250       2.25166750      10.56482500  F      636       0.00000000       0.00000000       0.00000000
Si      23.85873750       4.97721250      10.56482500  F      637       0.00000000       0.00000000       0.00000000
Si      23.85683000       2.25384750      13.29445750  F      638       0.00000000       0.00000000       0.00000000
Si      21.14899750       4.96140750      13.28982500  F      639       0.00000000       0.00000000       0.00000000
Si      25.21715000       6.34325500       9.20396000  F      640       0.00000000       0.00000000       0.00000000
Si       0.68397500       9.07152500       9.20559500  F      641       0.00000000       0.00000000       0.00000000
Si      25.21497000       9.07070750      11.93195750  F      642       0.00000000       0.00000000       0.00000000
Si       0.68397500       6.34570750      11.93223000  F      643       0.00000000       0.00000000       0.00000000
Si      26.57447250       7.70793500      10.56836750  F      644       0.00000000       0.00000000       0.00000000
Si       2.04320500      10.43511500      10.56864000  F      645       0.00000000       0.00000000       0.00000000
Si       2.04347750       7.70820750      13.29609250  F      646       0.00000000       0.00000000       0.00000000
Si      26.57365500      10.43593250      13.29609250  F      647       0.00000000       0.00000000       0.00000000
Si       3.40407000       6.34434500       9.20396000  F      648       0.00000000       0.00000000       0.00000000
Si       6.12307500       9.06798250       9.20041750  F      649       0.00000000       0.00000000       0.00000000
Si       3.40298000       9.07043500      11.93059500  F      650       0.00000000       0.00000000       0.00000000
Si       6.11490000       6.32908500      11.92596250  F      651       0.00000000       0.00000000       0.00000000
Si       4.76302750       7.70548250      10.56646000  F      652       0.00000000       0.00000000       0.00000000
Si       7.48012500      10.43266250      10.55937500  F      653       0.00000000       0.00000000       0.00000000
Si       7.46541000       7.68095750      13.29636500  F      654       0.00000000       0.00000000       0.00000000
Si       4.76193750      10.43293500      13.29418500  F      655       0.00000000       0.00000000       0.00000000
Si       8.85325250       6.33535250       9.19796500  F      656       0.00000000       0.00000000       0.00000000
Si      11.58506500       9.02029500       9.15763500  F      657       0.00000000       0.00000000       0.00000000
Si       8.81047000       9.02901500      11.91588000  F      658       0.00000000       0.00000000       0.00000000
Si      11.58179500       6.32036500      11.90743250  F      659       0.00000000       0.00000000       0.00000000
Si      10.21602500       7.69431000      10.55583250  F      660       0.00000000       0.00000000       0.00000000
Si      13.03090474      10.30466852      10.46704783  T      661      -0.00481379       0.00349014       0.01658418
Si      12.96200750       7.66242750      13.25658000  F      662       0.00000000       0.00000000       0.00000000
Si      10.14496130      10.43481662      13.28938615  T      663      -0.05471663       0.03515315       0.00218919
Si      14.31905750       6.31191750       9.17507500  F      664       0.00000000       0.00000000       0.00000000
Si      17.06122500       9.04918000       9.18216000  F      665       0.00000000       0.00000000       0.00000000
Si      14.36728168       8.99495717      11.88467167  T      666       0.00476222       0.00898015      -0.00225306
Si      17.06258750       6.31682250      11.91996750  F      667       0.00000000       0.00000000       0.00000000
Si      15.70526500       7.65289000      10.52558500  F      668       0.00000000       0.00000000       0.00000000
Si      18.45778750      10.40541250      10.52558500  F      669       0.00000000       0.00000000       0.00000000
Si      18.46187500       7.64853000      13.27974250  F      670       0.00000000       0.00000000       0.00000000
Si      15.85251168      10.30561454      13.20331506  T      671       0.00309819       0.04509261       0.00482360
Si      19.77641500       6.33399000       9.19769250  F      672       0.00000000       0.00000000       0.00000000
Si      22.50223250       9.06498500       9.19796500  F      673       0.00000000       0.00000000       0.00000000
Si      19.79358250       9.04781750      11.91996750  F      674       0.00000000       0.00000000       0.00000000
Si      22.50196000       6.33535250      11.92923250  F      675       0.00000000       0.00000000       0.00000000
Si      21.14790750       7.69267500      10.55719500  F      676       0.00000000       0.00000000       0.00000000
Si      23.85519500      10.43211750      10.56646000  F      677       0.00000000       0.00000000       0.00000000
Si      23.85546750       7.70521000      13.29418500  F      678       0.00000000       0.00000000       0.00000000
Si      21.13537250      10.42557750      13.29227750  F      679       0.00000000       0.00000000       0.00000000
Si      25.21469750      11.79816000       9.20505000  F      680       0.00000000       0.00000000       0.00000000
Si       0.68397500      14.52615750       9.20695750  F      681       0.00000000       0.00000000       0.00000000
Si      25.21224500      14.52561250      11.93250250  F      682       0.00000000       0.00000000       0.00000000
Si       0.68506500      11.79979500      11.93359250  F      683       0.00000000       0.00000000       0.00000000
Si      26.57365500      13.16229500      10.57000250  F      684       0.00000000       0.00000000       0.00000000
Si       2.04347750      15.89111000      10.57000250  F      685       0.00000000       0.00000000       0.00000000
Si       2.04565750      13.16420250      13.29772750  F      686       0.00000000       0.00000000       0.00000000
Si      26.57202000      15.88947500      13.29691000  F      687       0.00000000       0.00000000       0.00000000
Si       3.40161750      11.79734250       9.20287000  F      688       0.00000000       0.00000000       0.00000000
Si       6.10999500      14.52752000       9.18870000  F      689       0.00000000       0.00000000       0.00000000
Si       3.40516000      14.52915500      11.93413750  F      690       0.00000000       0.00000000       0.00000000
Si       6.11708000      11.79816000      11.92405500  F      691       0.00000000       0.00000000       0.00000000
Si       4.75866750      13.16447500      10.56291750  F      692       0.00000000       0.00000000       0.00000000
Si      11.53193199      17.28037151      11.88016595  T      693      -0.02038407      -0.00115247      -0.03148997
Si       7.46650000      13.16611000      13.28546500  F      694       0.00000000       0.00000000       0.00000000
Si       4.76248250      15.89737750      13.29909000  F      695       0.00000000       0.00000000       0.00000000
Si       8.82246000      11.79325500       9.16908000  F      696       0.00000000       0.00000000       0.00000000
Si      10.20812250      18.65044500      10.54384250  F      697       0.00000000       0.00000000       0.00000000
Si      10.89866167      13.55848424      13.01510571  T      698      -0.08954795       0.11016497      -0.08285879
Si      11.61723150      11.50788749      11.81753350  T      699       0.02753998      -0.04230514       0.07069196
Si      10.18372031      13.07260407      10.55679805  T      700      -0.02079044      -0.06446651       0.01875917
Si      12.97737341      15.85429807      10.52840474  T      701       0.00941921      -0.04453251      -0.00988928
Si      13.19541318      12.83512567      12.98381664  T      702      -0.12812058       0.05415115      -0.00831714
Si      10.03678897      16.15044602      13.27869558  T      703      -0.01536563       0.10176552      -0.01586712
Si      14.34851466      11.76666586       9.15948179  T      704      -0.00187163       0.00148768       0.00848805
Si      17.10238393      14.53424860       9.14384142  T      705      -0.00314659      -0.00215431       0.00076014
Si      14.61435800      14.64719864      11.71287358  T      706       0.06717400       0.14303103      -0.02699677
Si      17.11927974      11.75829727      11.88526253  T      707      -0.00199553       0.00661352      -0.00134276
Si      15.81164334      13.09882934      10.44784360  T      708      -0.00858770       0.01525454       0.00845100
Si      18.41609500      15.89465250      10.55583250  F      709       0.00000000       0.00000000       0.00000000
Si      18.42122636      13.15997459      13.28262500  T      710       0.00409381      -0.00005219       0.00568973
Si      15.68890238      15.94801607      13.32121542  T      711       0.00714116       0.06092337       0.02555988
Si      19.79848750      11.79134750       9.17507500  F      712       0.00000000       0.00000000       0.00000000
Si      22.50032500      14.52779250       9.19660250  F      713       0.00000000       0.00000000       0.00000000
Si      19.79004000      14.52861000      11.90743250  F      714       0.00000000       0.00000000       0.00000000
Si      22.49351250      11.79461750      11.92868750  F      715       0.00000000       0.00000000       0.00000000
Si      21.14518250      13.15766250      10.55147250  F      716       0.00000000       0.00000000       0.00000000
Si      23.85492250      15.89002000      10.56673250  F      717       0.00000000       0.00000000       0.00000000
Si      23.85029000      13.16093250      13.29445750  F      718       0.00000000       0.00000000       0.00000000
Si      21.13455500      15.89220000      13.28900750  F      719       0.00000000       0.00000000       0.00000000
Si      25.21415250      17.25388250       9.20532250  F      720       0.00000000       0.00000000       0.00000000
Si       0.68097750      19.98024500       9.20532250  F      721       0.00000000       0.00000000       0.00000000
Si      25.21224500      19.97970000      11.93250250  F      722       0.00000000       0.00000000       0.00000000
Si       0.68234000      17.25388250      11.93359250  F      723       0.00000000       0.00000000       0.00000000
Si      26.57283750      18.61665500      10.56945750  F      724       0.00000000       0.00000000       0.00000000
Si       2.03966250      21.34519750      10.56700500  F      725       0.00000000       0.00000000       0.00000000
Si       2.04102500      18.61965250      13.29636500  F      726       0.00000000       0.00000000       0.00000000
Si      26.57147500      21.34274500      13.29636500  F      727       0.00000000       0.00000000       0.00000000
Si       3.39862000      17.25606250       9.20232500  F      728       0.00000000       0.00000000       0.00000000
Si       6.12770750      19.98269750       9.20423250  F      729       0.00000000       0.00000000       0.00000000
Si       3.39725750      19.98624000      11.93114000  F      730       0.00000000       0.00000000       0.00000000
Si       6.11135750      17.26750750      11.92732500  F      731       0.00000000       0.00000000       0.00000000
Si       4.75512500      18.62428500      10.56319000  F      732       0.00000000       0.00000000       0.00000000
Si       7.48639250      21.35528000      10.56319000  F      733       0.00000000       0.00000000       0.00000000
Si       7.42181000      18.68886750      13.28301250  F      734       0.00000000       0.00000000       0.00000000
Si       4.74286250      21.36781500      13.29173250  F      735       0.00000000       0.00000000       0.00000000
Si       8.76632160      14.53816230      11.92580446  T      736      -0.05437437      -0.01167324       0.01220338
Si      11.58315750      20.00041000       9.18870000  F      737       0.00000000       0.00000000       0.00000000
Si       8.74343500      17.36697000      14.68666000  F      738       0.00000000       0.00000000       0.00000000
Si      13.56626982      13.95964187      15.13165049  T      739      -0.11420940      -0.12113333      -0.03283769
Si      12.58689010      15.12025768      13.12722979  T      740      -0.05066858       0.01349394       0.03449939
Si      12.94593000      21.35173750      10.56291750  F      741       0.00000000       0.00000000       0.00000000
Si      12.93251469      18.62788733      13.27230769  T      742      -0.01236591       0.00967886      -0.01682489
Si      10.21302750      21.34792250      13.29909000  F      743       0.00000000       0.00000000       0.00000000
Si      14.31131013      17.28115376       9.18101484  T      744      -0.00676841      -0.00004573       0.00156600
Si      17.04242250      19.98733000       9.20041750  F      745       0.00000000       0.00000000       0.00000000
Si      14.31224500      19.99332500      11.92405500  F      746       0.00000000       0.00000000       0.00000000
Si      17.05436027      17.28093740      11.93383794  T      747       0.00218314       0.00915696      -0.00078927
Si      15.67774250      18.63028000      10.55937500  F      748       0.00000000       0.00000000       0.00000000
Si      18.40519500      21.34737750      10.56646000  F      749       0.00000000       0.00000000       0.00000000
Si      18.42944750      18.64499500      13.29636500  F      750       0.00000000       0.00000000       0.00000000
Si      15.67747000      21.34874000      13.29418500  F      751       0.00000000       0.00000000       0.00000000
Si      19.77505250      17.25715250       9.19796500  F      752       0.00000000       0.00000000       0.00000000
Si      22.49269500      19.98106250       9.20341500  F      753       0.00000000       0.00000000       0.00000000
Si      19.78132000      19.99550500      11.92596250  F      754       0.00000000       0.00000000       0.00000000
Si      22.49460250      17.25551750      11.92841500  F      755       0.00000000       0.00000000       0.00000000
Si      21.13373750      18.62019750      10.56537000  F      756       0.00000000       0.00000000       0.00000000
Si      23.85192500      21.34247250      10.56891250  F      757       0.00000000       0.00000000       0.00000000
Si      23.85247000      18.61747250      13.29554750  F      758       0.00000000       0.00000000       0.00000000
Si      21.13591750      21.35092000      13.29691000  F      759       0.00000000       0.00000000       0.00000000
Si      25.21170000      22.70361000       9.20559500  F      760       0.00000000       0.00000000       0.00000000
Si       0.68424750      25.42615750       9.20614000  F      761       0.00000000       0.00000000       0.00000000
Si      25.21251750      25.42697500      11.93223000  F      762       0.00000000       0.00000000       0.00000000
Si       0.68070500      22.70579000      11.93277500  F      763       0.00000000       0.00000000       0.00000000
Si      26.57174750      24.06556500      10.56836750  F      764       0.00000000       0.00000000       0.00000000
Si       2.04484000      26.78865750      10.56836750  F      765       0.00000000       0.00000000       0.00000000
Si       2.03666500      24.07374000      13.29473000  F      766       0.00000000       0.00000000       0.00000000
Si      26.57202000      26.78838500      13.29582000  F      767       0.00000000       0.00000000       0.00000000
Si       3.40570500      22.70470000       9.20614000  F      768       0.00000000       0.00000000       0.00000000
Si       6.13016000      25.42942750       9.20532250  F      769       0.00000000       0.00000000       0.00000000
Si       3.40461500      25.42970000      11.93277500  F      770       0.00000000       0.00000000       0.00000000
Si       6.12416500      22.71314750      11.93114000  F      771       0.00000000       0.00000000       0.00000000
Si       4.76520750      24.07074250      10.56700500  F      772       0.00000000       0.00000000       0.00000000
Si       7.49375000      26.78756750      10.56945750  F      773       0.00000000       0.00000000       0.00000000
Si       7.49075250      24.06938000      13.29636500  F      774       0.00000000       0.00000000       0.00000000
Si       4.76766000      26.78893000      13.29636500  F      775       0.00000000       0.00000000       0.00000000
Si       8.85434250      22.71178500       9.20232500  F      776       0.00000000       0.00000000       0.00000000
Si      11.58424750      25.42643000       9.20695750  F      777       0.00000000       0.00000000       0.00000000
Si       8.85679500      25.42806500      11.93359250  F      778       0.00000000       0.00000000       0.00000000
Si      11.58125000      22.70524500      11.93413750  F      779       0.00000000       0.00000000       0.00000000
Si      10.21929500      24.06692750      10.57000250  F      780       0.00000000       0.00000000       0.00000000
Si      12.94811000      26.78675000      10.57000250  F      781       0.00000000       0.00000000       0.00000000
Si      12.94620250      24.06502000      13.29772750  F      782       0.00000000       0.00000000       0.00000000
Si      10.22093000      26.78838500      13.29691000  F      783       0.00000000       0.00000000       0.00000000
Si      14.31306250      22.70878750       9.20287000  F      784       0.00000000       0.00000000       0.00000000
Si      17.03915250      25.42643000       9.20559500  F      785       0.00000000       0.00000000       0.00000000
Si      14.31061000      25.42561250      11.93359250  F      786       0.00000000       0.00000000       0.00000000
Si      17.04024250      22.70742500      11.93059500  F      787       0.00000000       0.00000000       0.00000000
Si      15.67529000      24.06747250      10.56864000  F      788       0.00000000       0.00000000       0.00000000
Si      18.40247000      26.78593250      10.56836750  F      789       0.00000000       0.00000000       0.00000000
Si      18.40219750      24.06692750      13.29609250  F      790       0.00000000       0.00000000       0.00000000
Si      15.67447250      26.78675000      13.29609250  F      791       0.00000000       0.00000000       0.00000000
Si      19.76606000      22.70633500       9.20396000  F      792       0.00000000       0.00000000       0.00000000
Si      22.48942500      25.42506750       9.20532250  F      793       0.00000000       0.00000000       0.00000000
Si      19.76497000      25.42643000      11.93223000  F      794       0.00000000       0.00000000       0.00000000
Si      22.49351250      22.70824250      11.93114000  F      795       0.00000000       0.00000000       0.00000000
Si      21.12774250      24.06611000      10.56891250  F      796       0.00000000       0.00000000       0.00000000
Si      23.85192500      26.78538750      10.56809500  F      797       0.00000000       0.00000000       0.00000000
Si      23.85219750      24.06747250      13.29663750  F      798       0.00000000       0.00000000       0.00000000
Si      21.12747000      26.78647750      13.29582000  F      799       0.00000000       0.00000000       0.00000000
Si      25.21360750       0.89679750      14.66104500  F      800       0.00000000       0.00000000       0.00000000
Si       0.68234000       3.62016250      14.65995500  F      801       0.00000000       0.00000000       0.00000000
Si      25.21306250       3.62152500      17.38822500  F      802       0.00000000       0.00000000       0.00000000
Si       0.68234000       0.90088500      17.38822500  F      803       0.00000000       0.00000000       0.00000000
Si      26.57229250       2.26011500      16.02409000  F      804       0.00000000       0.00000000       0.00000000
Si       2.04075250       4.98130000      16.02463500  F      805       0.00000000       0.00000000       0.00000000
Si       2.04375000       2.26175000      18.75099750  F      806       0.00000000       0.00000000       0.00000000
Si      26.57229250       4.98484250      18.75072500  F      807       0.00000000       0.00000000       0.00000000
Si       3.40516000       0.89843250      14.66022750  F      808       0.00000000       0.00000000       0.00000000
Si       6.12607250       3.61580250      14.65886500  F      809       0.00000000       0.00000000       0.00000000
Si       3.40461500       3.62098000      17.38713500  F      810       0.00000000       0.00000000       0.00000000
Si       6.13097750       0.89979500      17.38768000  F      811       0.00000000       0.00000000       0.00000000
Si       4.76629750       2.25793500      16.02436250  F      812       0.00000000       0.00000000       0.00000000
Si       7.48584750       4.97367000      16.02490750  F      813       0.00000000       0.00000000       0.00000000
Si       7.49375000       2.26038750      18.75099750  F      814       0.00000000       0.00000000       0.00000000
Si       4.76493500       4.98102750      18.75208750  F      815       0.00000000       0.00000000       0.00000000
Si       8.85788500       0.89979500      14.65995500  F      816       0.00000000       0.00000000       0.00000000
Si      11.58533750       3.62207000      14.65750250  F      817       0.00000000       0.00000000       0.00000000
Si       8.85652250       3.61989000      17.38768000  F      818       0.00000000       0.00000000       0.00000000
Si      11.58424750       0.90034000      17.38604500  F      819       0.00000000       0.00000000       0.00000000
Si      10.22147500       2.26175000      16.02245500  F      820       0.00000000       0.00000000       0.00000000
Si      12.95056250       4.98239000      16.02163750  F      821       0.00000000       0.00000000       0.00000000
Si      12.94783750       2.26093250      18.74909000  F      822       0.00000000       0.00000000       0.00000000
Si      10.21956750       4.98021000      18.75317750  F      823       0.00000000       0.00000000       0.00000000
Si      14.31142750       0.89870500      14.65913750  F      824       0.00000000       0.00000000       0.00000000
Si      17.04405750       3.61553000      14.65886500  F      825       0.00000000       0.00000000       0.00000000
Si      14.31279000       3.62070750      17.38577250  F      826       0.00000000       0.00000000       0.00000000
Si      17.03751750       0.89816000      17.38631750  F      827       0.00000000       0.00000000       0.00000000
Si      15.67583500       2.25902500      16.02218250  F      828       0.00000000       0.00000000       0.00000000
Si      18.41200750       4.97121750      16.02381750  F      829       0.00000000       0.00000000       0.00000000
Si      18.40110750       2.25739000      18.75099750  F      830       0.00000000       0.00000000       0.00000000
Si      15.67665250       4.97775750      18.75345000  F      831       0.00000000       0.00000000       0.00000000
Si      19.76524250       0.89598000      14.65995500  F      832       0.00000000       0.00000000       0.00000000
Si      22.50059750       3.60980750      14.66213500  F      833       0.00000000       0.00000000       0.00000000
Si      19.76851250       3.61471250      17.38986000  F      834       0.00000000       0.00000000       0.00000000
Si      22.48915250       0.89734250      17.38822500  F      835       0.00000000       0.00000000       0.00000000
Si      21.12937750       2.25575500      16.02381750  F      836       0.00000000       0.00000000       0.00000000
Si      23.85465000       4.98102750      16.02381750  F      837       0.00000000       0.00000000       0.00000000
Si      23.84920000       2.26120500      18.75018000  F      838       0.00000000       0.00000000       0.00000000
Si      21.12747000       4.98293500      18.75072500  F      839       0.00000000       0.00000000       0.00000000
Si      25.21442500       6.34516250      14.65995500  F      840       0.00000000       0.00000000       0.00000000
Si       0.68479250       9.07343250      14.65995500  F      841       0.00000000       0.00000000       0.00000000
Si      25.21224500       9.07288750      17.38631750  F      842       0.00000000       0.00000000       0.00000000
Si       0.68234000       6.34652500      17.38713500  F      843       0.00000000       0.00000000       0.00000000
Si      26.57365500       7.71011500      16.02300000  F      844       0.00000000       0.00000000       0.00000000
Si       2.04511250      10.43702250      16.02409000  F      845       0.00000000       0.00000000       0.00000000
Si       2.04129750       7.70848000      18.75236000  F      846       0.00000000       0.00000000       0.00000000
Si      26.57202000      10.43675000      18.74936250  F      847       0.00000000       0.00000000       0.00000000
Si       3.39916500       6.33998500      14.65941000  F      848       0.00000000       0.00000000       0.00000000
Si       6.10672500       9.05299500      14.65832000  F      849       0.00000000       0.00000000       0.00000000
Si       3.40052750       9.07043500      17.39040500  F      850       0.00000000       0.00000000       0.00000000
Si       6.12443750       6.33944000      17.38822500  F      851       0.00000000       0.00000000       0.00000000
Si       4.75430750       7.69839750      16.02817750  F      852       0.00000000       0.00000000       0.00000000
Si       7.45015000      10.40841000      16.03826000  F      853       0.00000000       0.00000000       0.00000000
Si       7.48612000       7.70003250      18.75317750  F      854       0.00000000       0.00000000       0.00000000
Si       4.75730500      10.43320750      18.75917250  F      855       0.00000000       0.00000000       0.00000000
Si       8.84262500       6.32636000      14.65450500  F      856       0.00000000       0.00000000       0.00000000
Si      11.57385674       9.04404079      14.66120225  T      857      -0.00165822       0.02331966       0.02206403
Si       8.84153500       9.05136000      17.37896000  F      858       0.00000000       0.00000000       0.00000000
Si      11.58506500       6.33835000      17.39122250  F      859       0.00000000       0.00000000       0.00000000
Si      10.20512500       7.67469000      16.02436250  F      860       0.00000000       0.00000000       0.00000000
Si      12.98465329      10.43373320      16.12394013  T      861      -0.03360551       0.09636661       0.11663338
Si      12.94593000       7.69649000      18.76353250  F      862       0.00000000       0.00000000       0.00000000
Si      10.17106250      10.38443000      18.79596000  F      863       0.00000000       0.00000000       0.00000000
Si      14.32232750       6.33726000      14.65695750  F      864       0.00000000       0.00000000       0.00000000
Si      17.12989500       8.98051000      14.66676750  F      865       0.00000000       0.00000000       0.00000000
Si      14.34647295       9.02766907      17.43397978  T      866       0.00012353      -0.00516921       0.01057543
Si      17.04896250       6.33017500      17.39149500  F      867       0.00000000       0.00000000       0.00000000
Si      15.69327500       7.68858750      16.02981250  F      868       0.00000000       0.00000000       0.00000000
Si      18.42181750      10.41713000      16.02981250  F      869       0.00000000       0.00000000       0.00000000
Si      18.40437750       7.70602750      18.75181500  F      870       0.00000000       0.00000000       0.00000000
Si      15.67147500      10.43893000      18.77279750  F      871       0.00000000       0.00000000       0.00000000
Si      19.80039500       6.31001000      14.66349750  F      872       0.00000000       0.00000000       0.00000000
Si      22.49514750       9.06634750      14.65886500  F      873       0.00000000       0.00000000       0.00000000
Si      19.78023000       9.06144250      17.39149500  F      874       0.00000000       0.00000000       0.00000000
Si      22.49569250       6.34189250      17.38986000  F      875       0.00000000       0.00000000       0.00000000
Si      21.13946000       7.69839750      16.02381750  F      876       0.00000000       0.00000000       0.00000000
Si      23.85138000      10.43457000      16.02218250  F      877       0.00000000       0.00000000       0.00000000
Si      23.85301500       7.70929750      18.75099750  F      878       0.00000000       0.00000000       0.00000000
Si      21.13264750      10.43375250      18.75345000  F      879       0.00000000       0.00000000       0.00000000
Si      25.21170000      11.79897750      14.65913750  F      880       0.00000000       0.00000000       0.00000000
Si       0.68370250      14.52724750      14.66104500  F      881       0.00000000       0.00000000       0.00000000
Si      25.21033750      14.52615750      17.38604500  F      882       0.00000000       0.00000000       0.00000000
Si       0.68315750      11.80034000      17.38686250  F      883       0.00000000       0.00000000       0.00000000
Si      26.57202000      13.16311250      16.02300000  F      884       0.00000000       0.00000000       0.00000000
Si       2.04238750      15.89220000      16.02572500  F      885       0.00000000       0.00000000       0.00000000
Si       2.04211500      13.16365750      18.75263250  F      886       0.00000000       0.00000000       0.00000000
Si      26.57011250      15.88974750      18.75018000  F      887       0.00000000       0.00000000       0.00000000
Si       3.40734000      11.80115750      14.66159000  F      888       0.00000000       0.00000000       0.00000000
Si       6.12443750      14.53705750      14.66622250  F      889       0.00000000       0.00000000       0.00000000
Si       3.40243500      14.53024500      17.39204000  F      890       0.00000000       0.00000000       0.00000000
Si       6.11490000      11.80034000      17.40348500  F      891       0.00000000       0.00000000       0.00000000
Si       4.76520750      13.16692750      16.02899500  F      892       0.00000000       0.00000000       0.00000000
Si       7.45151250      15.92735250      16.04779750  F      893       0.00000000       0.00000000       0.00000000
Si       7.43761500      13.16365750      18.80985750  F      894       0.00000000       0.00000000       0.00000000
Si       4.74885750      15.89874000      18.76707500  F      895       0.00000000       0.00000000       0.00000000
Si       8.86438058      11.81094397      14.69426302  T      896       0.04450336       0.02959625       0.03744711
Si      11.92690727      12.32735849      15.08570691  T      897      -0.10962361      -0.10457226      -0.09763562
Si       8.75406250      14.59591750      17.50512750  F      898       0.00000000       0.00000000       0.00000000
Si      11.50964251      11.76670912      17.55825007  T      899      -0.06038877      -0.01385843       0.05071249
Si      10.10014679      13.23275515      16.31964029  T      900       0.13167770       0.07195633       0.13222432
Si      12.84618526      16.06130198      16.21885882  T      901      -0.06043689      -0.07077544       0.01535352
Si      12.93760697      13.16333726      18.86575199  T      902       0.00448308       0.00415161      -0.00382726
Si      10.18959250      15.92081250      18.82212000  F      903       0.00000000       0.00000000       0.00000000
Si      14.49220530      11.45421926      14.66168547  T      904      -0.06439896      -0.09305067       0.06891955
Si      17.06357620      14.52470066      14.65147088  T      905       0.00609385      -0.00172920      -0.00373602
Si      14.30054781      14.55327605      17.44180860  T      906       0.00296509       0.03703954      -0.05396997
Si      17.07017541      11.75890325      17.42686168  T      907      -0.00785624      -0.00305339       0.00147975
Si      15.71402762      13.08384422      16.06490526  T      908      -0.03999231       0.00861888       0.04460130
Si      18.41276830      15.89673128      16.02503443  T      909       0.00134134       0.00050996       0.00333814
Si      18.41391500      13.16447500      18.76353250  F      910       0.00000000       0.00000000       0.00000000
Si      15.69526690      15.90043826      18.78363891  T      911      -0.00131086      -0.00547818       0.00489552
Si      19.77314500      11.78807750      14.65695750  F      912       0.00000000       0.00000000       0.00000000
Si      22.48860750      14.52506750      14.65750250  F      913       0.00000000       0.00000000       0.00000000
Si      19.77205500      14.52561250      17.39122250  F      914       0.00000000       0.00000000       0.00000000
Si      22.48969750      11.79761500      17.38577250  F      915       0.00000000       0.00000000       0.00000000
Si      21.12801500      13.15984250      16.02163750  F      916       0.00000000       0.00000000       0.00000000
Si      23.84892750      15.88893000      16.02245500  F      917       0.00000000       0.00000000       0.00000000
Si      23.84947250      13.16256750      18.74909000  F      918       0.00000000       0.00000000       0.00000000
Si      21.13046750      15.89083750      18.75317750  F      919       0.00000000       0.00000000       0.00000000
Si      25.21061000      17.25252000      14.65995500  F      920       0.00000000       0.00000000       0.00000000
Si       0.68043250      19.98106250      14.66104500  F      921       0.00000000       0.00000000       0.00000000
Si      25.21061000      19.97942750      17.38768000  F      922       0.00000000       0.00000000       0.00000000
Si       0.68070500      17.25470000      17.38877000  F      923       0.00000000       0.00000000       0.00000000
Si      26.57038500      18.61638250      16.02381750  F      924       0.00000000       0.00000000       0.00000000
Si       2.03557500      21.34928500      16.02545250  F      925       0.00000000       0.00000000       0.00000000
Si       2.03475750      18.62156000      18.75563000  F      926       0.00000000       0.00000000       0.00000000
Si      26.56847750      21.34356250      18.75181500  F      927       0.00000000       0.00000000       0.00000000
Si       3.40052750      17.25987750      14.66322500  F      928       0.00000000       0.00000000       0.00000000
Si       6.08656000      20.02384500      14.67085500  F      929       0.00000000       0.00000000       0.00000000
Si       3.39071750      19.99169000      17.39640000  F      930       0.00000000       0.00000000       0.00000000
Si       6.09637000      17.27813500      17.40621000  F      931       0.00000000       0.00000000       0.00000000
Si       4.74531500      18.63682000      16.03063000  F      932       0.00000000       0.00000000       0.00000000
Si       7.47385750      21.36509000      16.03063000  F      933       0.00000000       0.00000000       0.00000000
Si       7.47631000      18.63436750      18.76680250  F      934       0.00000000       0.00000000       0.00000000
Si       4.75921250      21.35119250      18.75672000  F      935       0.00000000       0.00000000       0.00000000
Si      11.14921673      14.89346702      14.94219601  T      936      -0.06170683       0.00809117      -0.10087031
Si      11.57334750      19.98596750      14.66622250  F      937       0.00000000       0.00000000       0.00000000
Si       8.83227000      20.01403500      17.40621000  F      938       0.00000000       0.00000000       0.00000000
Si      11.49151420      17.38982186      17.51954915  T      939      -0.00864681       0.00407440      -0.00217305
Si      10.18332500      18.65889250      16.04779750  F      940       0.00000000       0.00000000       0.00000000
Si      12.94347750      21.34519750      16.02899500  F      941       0.00000000       0.00000000       0.00000000
Si      12.94674750      18.67279000      18.80985750  F      942       0.00000000       0.00000000       0.00000000
Si      10.21166500      21.36154750      18.76707500  F      943       0.00000000       0.00000000       0.00000000
Si      14.23944707      17.25934316      14.64678327  T      944      -0.06422888      -0.00040518      -0.01874015
Si      17.05741000      20.00395250      14.65832000  F      945       0.00000000       0.00000000       0.00000000
Si      14.31006500      19.99550500      17.40348500  F      946       0.00000000       0.00000000       0.00000000
Si      17.05038685      17.26198474      17.39450727  T      947       0.00474705       0.00000754       0.00942795
Si      15.67486695      18.62553887      16.01359895  T      948      -0.00872477      -0.00806925      -0.00901634
Si      18.41228000      21.35609750      16.02817750  F      949       0.00000000       0.00000000       0.00000000
Si      18.41064500      18.62428500      18.75317750  F      950       0.00000000       0.00000000       0.00000000
Si      15.67719750      21.35310000      18.75917250  F      951       0.00000000       0.00000000       0.00000000
Si      19.78404500      17.26778000      14.65450500  F      952       0.00000000       0.00000000       0.00000000
Si      22.49460250      19.98433250      14.65886500  F      953       0.00000000       0.00000000       0.00000000
Si      19.77123750      19.98596750      17.38822500  F      954       0.00000000       0.00000000       0.00000000
Si      22.49051500      17.25388250      17.38768000  F      955       0.00000000       0.00000000       0.00000000
Si      21.13700750      18.62483000      16.02490750  F      956       0.00000000       0.00000000       0.00000000
Si      23.85247000      21.34438000      16.02436250  F      957       0.00000000       0.00000000       0.00000000
Si      23.85029000      18.61665500      18.75099750  F      958       0.00000000       0.00000000       0.00000000
Si      21.12937750      21.34547000      18.75208750  F      959       0.00000000       0.00000000       0.00000000
Si      25.21197250      22.70551750      14.66022750  F      960       0.00000000       0.00000000       0.00000000
Si       0.67961500      25.43079000      14.66159000  F      961       0.00000000       0.00000000       0.00000000
Si      25.20952000      25.42806500      17.38822500  F      962       0.00000000       0.00000000       0.00000000
Si       0.67770750      22.70824250      17.39013250  F      963       0.00000000       0.00000000       0.00000000
Si      26.56984000      24.06829000      16.02436250  F      964       0.00000000       0.00000000       0.00000000
Si       2.04211500      26.79056500      16.02436250  F      965       0.00000000       0.00000000       0.00000000
Si       2.04102500      24.06938000      18.75208750  F      966       0.00000000       0.00000000       0.00000000
Si      26.57065750      26.78974750      18.75072500  F      967       0.00000000       0.00000000       0.00000000
Si       3.39099000      22.71941500      14.66377000  F      968       0.00000000       0.00000000       0.00000000
Si       6.12934250      25.42997250      14.66104500  F      969       0.00000000       0.00000000       0.00000000
Si       3.40216250      25.43297000      17.39013250  F      970       0.00000000       0.00000000       0.00000000
Si       6.11871500      22.71968750      17.39640000  F      971       0.00000000       0.00000000       0.00000000
Si       4.76112000      24.07483000      16.02545250  F      972       0.00000000       0.00000000       0.00000000
Si       7.49402250      26.79002000      16.02381750  F      973       0.00000000       0.00000000       0.00000000
Si       7.48884500      24.07564750      18.75563000  F      974       0.00000000       0.00000000       0.00000000
Si       4.76684250      26.79220000      18.75181500  F      975       0.00000000       0.00000000       0.00000000
Si       8.85052750      22.70987750      14.66322500  F      976       0.00000000       0.00000000       0.00000000
Si      11.58315750      25.42697500      14.66104500  F      977       0.00000000       0.00000000       0.00000000
Si       8.85570500      25.42997250      17.38877000  F      978       0.00000000       0.00000000       0.00000000
Si      11.58016000      22.70797000      17.39204000  F      979       0.00000000       0.00000000       0.00000000
Si      10.21820500      24.06801750      16.02572500  F      980       0.00000000       0.00000000       0.00000000
Si      12.94729250      26.78838500      16.02300000  F      981       0.00000000       0.00000000       0.00000000
Si      12.94674750      24.06829000      18.75263250  F      982       0.00000000       0.00000000       0.00000000
Si      10.22065750      26.79029250      18.75018000  F      983       0.00000000       0.00000000       0.00000000
Si      14.30924750      22.70306500      14.66159000  F      984       0.00000000       0.00000000       0.00000000
Si      17.03697250      25.42561250      14.65995500  F      985       0.00000000       0.00000000       0.00000000
Si      14.31006500      25.42724750      17.38686250  F      986       0.00000000       0.00000000       0.00000000
Si      17.03997000      22.70987750      17.39040500  F      987       0.00000000       0.00000000       0.00000000
Si      15.67338250      24.06529250      16.02409000  F      988       0.00000000       0.00000000       0.00000000
Si      18.40029000      26.78702250      16.02300000  F      989       0.00000000       0.00000000       0.00000000
Si      18.40192500      24.06910750      18.75236000  F      990       0.00000000       0.00000000       0.00000000
Si      15.67365500      26.78838500      18.74936250  F      991       0.00000000       0.00000000       0.00000000
Si      19.77042000      22.71124000      14.65941000  F      992       0.00000000       0.00000000       0.00000000
Si      22.49024250      25.42806500      14.65995500  F      993       0.00000000       0.00000000       0.00000000
Si      19.76388000      25.42833750      17.38713500  F      994       0.00000000       0.00000000       0.00000000
Si      22.48942500      22.70579000      17.38713500  F      995       0.00000000       0.00000000       0.00000000
Si      21.12910500      24.06965250      16.02463500  F      996       0.00000000       0.00000000       0.00000000
Si      23.85029000      26.78838500      16.02409000  F      997       0.00000000       0.00000000       0.00000000
Si      23.84865500      24.06665500      18.75099750  F      998       0.00000000       0.00000000       0.00000000
Si      21.12556250      26.78811250      18.75072500  F      999       0.00000000       0.00000000       0.00000000
Si      11.57871659      14.51050485       9.19699743  T     1000      -0.00811458      -0.00858068       0.00696664
Si       8.85161750      17.25878750       9.19851000  F     1001       0.00000000       0.00000000       0.00000000
Si       8.84289750      19.99904750      11.92732500  F     1002       0.00000000       0.00000000       0.00000000
Si      11.58343000      17.25579000       6.47705250  F     1003       0.00000000       0.00000000       0.00000000
1004
Lattice="27.25 0.0 0.0 0.0 27.25 0.0 0.0 0.0 27.25" Properties=species:S:1:pos:R:3:move_mask:L:1:spacegroup_kinds:I:1:forces:R:3 energy=-10128.39072895919 bias_energy=-10127.992716986484 name=displace pbc="T T T"
Si      25.20979250       0.90061250      20.11322500  F        0       0.00000000       0.00000000       0.00000000
Si       0.68343000       3.62397750      20.11322500  F        1       0.00000000       0.00000000       0.00000000
Si      25.21033750       3.62397750      22.83686250  F        2       0.00000000       0.00000000       0.00000000
Si       0.68261250       0.90143000      22.83768000  F        3       0.00000000       0.00000000       0.00000000
Si      26.57147500       2.26256750      21.47490750  F        4       0.00000000       0.00000000       0.00000000
Si       2.04429500       4.98538750      21.47599750  F        5       0.00000000       0.00000000       0.00000000
Si       2.04538500       2.26256750      24.19936250  F        6       0.00000000       0.00000000       0.00000000
Si      26.57229250       4.98566000      24.19854500  F        7       0.00000000       0.00000000       0.00000000
Si       3.40543250       0.90224750      20.11431500  F        8       0.00000000       0.00000000       0.00000000
Si       6.13070500       3.62152500      20.11349750  F        9       0.00000000       0.00000000       0.00000000
Si       3.40679500       3.62425000      22.83795250  F       10       0.00000000       0.00000000       0.00000000
Si       6.13070500       0.90224750      22.83931500  F       11       0.00000000       0.00000000       0.00000000
Si       4.76847750       2.26229500      21.47654250  F       12       0.00000000       0.00000000       0.00000000
Si       7.49211500       4.98239000      21.47736000  F       13       0.00000000       0.00000000       0.00000000
Si       7.49402250       2.26229500      24.20072500  F       14       0.00000000       0.00000000       0.00000000
Si       4.76902250       4.98538750      24.20045250  F       15       0.00000000       0.00000000       0.00000000
Si       8.85734000       0.90034000      20.11377000  F       16       0.00000000       0.00000000       0.00000000
Si      11.58452000       3.62043500      20.11458750  F       17       0.00000000       0.00000000       0.00000000
Si       8.85706750       3.62207000      22.83904250  F       18       0.00000000       0.00000000       0.00000000
Si      11.58397500       0.90034000      22.83849750  F       19       0.00000000       0.00000000       0.00000000
Si      10.22038500       2.26093250      21.47654250  F       20       0.00000000       0.00000000       0.00000000
Si      12.94729250       4.97966500      21.48035750  F       21       0.00000000       0.00000000       0.00000000
Si      12.94756500       2.26038750      24.20072500  F       22       0.00000000       0.00000000       0.00000000
Si      10.21902250       4.98048250      24.20508500  F       23       0.00000000       0.00000000       0.00000000
Si      14.31061000       0.89979500      20.11213500  F       24       0.00000000       0.00000000       0.00000000
Si      17.03915250       3.61852750      20.11486000  F       25       0.00000000       0.00000000       0.00000000
Si      14.31197250       3.62016250      22.83986000  F       26       0.00000000       0.00000000       0.00000000
Si      17.03751750       0.89952250      22.83768000  F       27       0.00000000       0.00000000       0.00000000
Si      15.67420000       2.25929750      21.47599750  F       28       0.00000000       0.00000000       0.00000000
Si      18.40083500       4.98375250      21.47545250  F       29       0.00000000       0.00000000       0.00000000
Si      18.40029000       2.26120500      24.19827250  F       30       0.00000000       0.00000000       0.00000000
Si      15.67447250       4.98402500      24.20045250  F       31       0.00000000       0.00000000       0.00000000
Si      19.76333500       0.89843250      20.11349750  F       32       0.00000000       0.00000000       0.00000000
Si      22.48779000       3.62261500      20.11322500  F       33       0.00000000       0.00000000       0.00000000
Si      19.76306250       3.62288750      22.83686250  F       34       0.00000000       0.00000000       0.00000000
Si      22.48642750       0.90006750      22.83686250  F       35       0.00000000       0.00000000       0.00000000
Si      21.12501750       2.26147750      21.47463500  F       36       0.00000000       0.00000000       0.00000000
Si      23.84920000       4.98538750      21.47463500  F       37       0.00000000       0.00000000       0.00000000
Si      23.84865500       2.26175000      24.19800000  F       38       0.00000000       0.00000000       0.00000000
Si      21.12529000       4.98538750      24.19772750  F       39       0.00000000       0.00000000       0.00000000
Si      25.21197250       6.34707000      20.11349750  F       40       0.00000000       0.00000000       0.00000000
Si       0.68097750       9.07288750      20.11377000  F       41       0.00000000       0.00000000       0.00000000
Si      25.21088250       9.07288750      22.83768000  F       42       0.00000000       0.00000000       0.00000000
Si       0.68343000       6.34788750      22.83740750  F       43       0.00000000       0.00000000       0.00000000
Si      26.57147500       7.71011500      21.47599750  F       44       0.00000000       0.00000000       0.00000000
Si       2.03966250      10.43429750      21.47954000  F       45       0.00000000       0.00000000       0.00000000
Si       2.04429500       7.70957000      24.20018000  F       46       0.00000000       0.00000000       0.00000000
Si      26.57093000      10.43566000      24.20045250  F       47       0.00000000       0.00000000       0.00000000
Si       3.40488750       6.34652500      20.11349750  F       48       0.00000000       0.00000000       0.00000000
Si       6.12634500       9.06934500      20.11704000  F       49       0.00000000       0.00000000       0.00000000
Si       3.40461500       9.07207000      22.83986000  F       50       0.00000000       0.00000000       0.00000000
Si       6.13070500       6.34652500      22.83931500  F       51       0.00000000       0.00000000       0.00000000
Si       4.76602500       7.70766250      21.47790500  F       52       0.00000000       0.00000000       0.00000000
Si       7.47740000      10.42966500      21.49561750  F       53       0.00000000       0.00000000       0.00000000
Si       7.49102500       7.70684500      24.20617500  F       54       0.00000000       0.00000000       0.00000000
Si       4.76221000      10.43266250      24.20862750  F       55       0.00000000       0.00000000       0.00000000
Si       8.85461500       6.34216500      20.11622250  F       56       0.00000000       0.00000000       0.00000000
Si      11.57770750       9.05190500      20.13775000  F       57       0.00000000       0.00000000       0.00000000
Si       8.85243500       9.06825500      22.84776250  F       58       0.00000000       0.00000000       0.00000000
Si      11.58424750       6.33862250      22.84749000  F       59       0.00000000       0.00000000       0.00000000
Si      10.21411750       7.69540000      21.49207500  F       60       0.00000000       0.00000000       0.00000000
Si      12.93911750      10.41876500      21.50025000  F       61       0.00000000       0.00000000       0.00000000
Si      12.94620250       7.70303000      24.20890000  F       62       0.00000000       0.00000000       0.00000000
Si      10.21548000      10.43293500      24.20971750  F       63       0.00000000       0.00000000       0.00000000
Si      14.31360750       6.33835000      20.12031000  F       64       0.00000000       0.00000000       0.00000000
Si      17.04051500       9.07016250      20.11840250  F       65       0.00000000       0.00000000       0.00000000
Si      14.31170000       9.06253250      22.85103250  F       66       0.00000000       0.00000000       0.00000000
Si      17.03860750       6.34543500      22.83904250  F       67       0.00000000       0.00000000       0.00000000
Si      15.67529000       7.70657250      21.47981250  F       68       0.00000000       0.00000000       0.00000000
Si      18.40383250      10.43511500      21.47981250  F       69       0.00000000       0.00000000       0.00000000
Si      18.40056250       7.70984250      24.19990750  F       70       0.00000000       0.00000000       0.00000000
Si      15.67583500      10.43457000      24.20454000  F       71       0.00000000       0.00000000       0.00000000
Si      19.76497000       6.34543500      20.11431500  F       72       0.00000000       0.00000000       0.00000000
Si      22.49187750       9.07125250      20.11486000  F       73       0.00000000       0.00000000       0.00000000
Si      19.76497000       9.07179750      22.83904250  F       74       0.00000000       0.00000000       0.00000000
Si      22.48751750       6.34734250      22.83686250  F       75       0.00000000       0.00000000       0.00000000
Si      21.12665250       7.70984250      21.47545250  F       76       0.00000000       0.00000000       0.00000000
Si      23.85110750      10.43647750      21.47599750  F       77       0.00000000       0.00000000       0.00000000
Si      23.84920000       7.71011500      24.19827250  F       78       0.00000000       0.00000000       0.00000000
Si      21.12665250      10.43593250      24.20045250  F       79       0.00000000       0.00000000       0.00000000
Si      25.21061000      11.79979500      20.11213500  F       80       0.00000000       0.00000000       0.00000000
Si       0.68070500      14.52752000      20.11458750  F       81       0.00000000       0.00000000       0.00000000
Si      25.21006500      14.52643000      22.83849750  F       82       0.00000000       0.00000000       0.00000000
Si       0.68016000      11.79979500      22.84013250  F       83       0.00000000       0.00000000       0.00000000
Si      26.57065750      13.16311250      21.47599750  F       84       0.00000000       0.00000000       0.00000000
Si       2.03612000      15.89192750      21.48281000  F       85       0.00000000       0.00000000       0.00000000
Si       2.03693750      13.16175000      24.20835500  F       86       0.00000000       0.00000000       0.00000000
Si      26.56875000      15.89002000      24.20236000  F       87       0.00000000       0.00000000       0.00000000
Si       3.39780250      11.79925000      20.12085500  F       88       0.00000000       0.00000000       0.00000000
Si       6.09201000      14.53896500      20.15355500  F       89       0.00000000       0.00000000       0.00000000
Si       3.39208000      14.53079000      22.85321250  F       90       0.00000000       0.00000000       0.00000000
Si       6.11871500      11.79897750      22.85321250  F       91       0.00000000       0.00000000       0.00000000
Si       4.74531500      13.16093250      21.49997750  F       92       0.00000000       0.00000000       0.00000000
Si       7.47167750      15.89955750      21.50352000  F       93       0.00000000       0.00000000       0.00000000
Si       7.48312250      13.16202250      24.21435000  F       94       0.00000000       0.00000000       0.00000000
Si       4.75921250      15.89220000      24.21217000  F       95       0.00000000       0.00000000       0.00000000
Si       8.83063500      11.79380000      20.14183750  F       96       0.00000000       0.00000000       0.00000000
Si      11.55100250      14.55940250      20.19361250  F       97       0.00000000       0.00000000       0.00000000
Si       8.83935500      14.53133500      22.85893500  F       98       0.00000000       0.00000000       0.00000000
Si      11.57634500      11.79625250      22.85130500  F       99       0.00000000       0.00000000       0.00000000
Si      10.19449750      13.15929750      21.50570000  F      100       0.00000000       0.00000000       0.00000000
Si      12.95110750      15.91618000      21.50570000  F      101       0.00000000       0.00000000       0.00000000
Si      12.94593000      13.16447500      24.20399500  F      102       0.00000000       0.00000000       0.00000000
Si      10.21575250      15.89465250      24.20917250  F      103       0.00000000       0.00000000       0.00000000
Si      14.32832250      11.78208250      20.18107750  F      104       0.00000000       0.00000000       0.00000000
Si      17.05850000      14.53297000      20.13775000  F      105       0.00000000       0.00000000       0.00000000
Si      14.31415250      14.53406000      22.85130500  F      106       0.00000000       0.00000000       0.00000000
Si      17.04787250      11.79870500      22.85103250  F      107       0.00000000       0.00000000       0.00000000
Si      15.69164000      13.17128750      21.50025000  F      108       0.00000000       0.00000000       0.00000000
Si      18.41500500      15.89628750      21.49207500  F      109       0.00000000       0.00000000       0.00000000
Si      18.40737500      13.16420250      24.20890000  F      110       0.00000000       0.00000000       0.00000000
Si      15.67747000      15.89492500      24.20971750  F      111       0.00000000       0.00000000       0.00000000
Si      19.77205500      11.79707000      20.12031000  F      112       0.00000000       0.00000000       0.00000000
Si      22.48997000      14.52588500      20.11458750  F      113       0.00000000       0.00000000       0.00000000
Si      19.77178250      14.52615750      22.84749000  F      114       0.00000000       0.00000000       0.00000000
Si      22.49024250      11.79843250      22.83986000  F      115       0.00000000       0.00000000       0.00000000
Si      21.13074000      13.16311250      21.48035750  F      116       0.00000000       0.00000000       0.00000000
Si      23.84947250      15.89002000      21.47654250  F      117       0.00000000       0.00000000       0.00000000
Si      23.85001750      13.16284000      24.20072500  F      118       0.00000000       0.00000000       0.00000000
Si      21.12992250      15.89165500      24.20508500  F      119       0.00000000       0.00000000       0.00000000
Si      25.21006500      17.25306500      20.11377000  F      120       0.00000000       0.00000000       0.00000000
Si       0.67689000      19.98297000      20.11758500  F      121       0.00000000       0.00000000       0.00000000
Si      25.20815750      19.97970000      22.83931500  F      122       0.00000000       0.00000000       0.00000000
Si       0.67770750      17.25551750      22.84258500  F      123       0.00000000       0.00000000       0.00000000
Si      26.56793250      18.61720000      21.47790500  F      124       0.00000000       0.00000000       0.00000000
Si       2.04020750      21.34465250      21.47926750  F      125       0.00000000       0.00000000       0.00000000
Si       2.04048000      18.61774500      24.20426750  F      126       0.00000000       0.00000000       0.00000000
Si      26.56984000      21.34192750      24.20099750  F      127       0.00000000       0.00000000       0.00000000
Si       3.39235250      17.26205750      20.12439750  F      128       0.00000000       0.00000000       0.00000000
Si       6.11817000      19.99223500      20.12603250  F      129       0.00000000       0.00000000       0.00000000
Si       3.39998250      19.98433250      22.84476500  F      130       0.00000000       0.00000000       0.00000000
Si       6.11626250      17.26369250      22.85730000  F      131       0.00000000       0.00000000       0.00000000
Si       4.75921250      18.62292250      21.48553500  F      132       0.00000000       0.00000000       0.00000000
Si       7.48748250      21.35146500      21.48553500  F      133       0.00000000       0.00000000       0.00000000
Si       7.48775500      18.62265000      24.21298750  F      134       0.00000000       0.00000000       0.00000000
Si       4.76575250      21.34492500      24.20508500  F      135       0.00000000       0.00000000       0.00000000
Si       8.82872750      17.28167750      20.15709750  F      136       0.00000000       0.00000000       0.00000000
Si      11.57144000      20.01839500      20.15355500  F      137       0.00000000       0.00000000       0.00000000
Si       8.84671250      19.99414250      22.85730000  F      138       0.00000000       0.00000000       0.00000000
Si      11.57934250      17.27105000      22.85893500  F      139       0.00000000       0.00000000       0.00000000
Si      10.21084750      18.63872750      21.50352000  F      140       0.00000000       0.00000000       0.00000000
Si      12.94974500      21.36509000      21.49997750  F      141       0.00000000       0.00000000       0.00000000
Si      12.94838250      18.62728250      24.21435000  F      142       0.00000000       0.00000000       0.00000000
Si      10.21820500      21.35119250      24.21217000  F      143       0.00000000       0.00000000       0.00000000
Si      14.31660500      17.27977000      20.14183750  F      144       0.00000000       0.00000000       0.00000000
Si      17.04106000      19.98433250      20.11704000  F      145       0.00000000       0.00000000       0.00000000
Si      14.31142750      19.99169000      22.85321250  F      146       0.00000000       0.00000000       0.00000000
Si      17.04215000      17.25797000      22.84776250  F      147       0.00000000       0.00000000       0.00000000
Si      15.68101250      18.63300500      21.49561750  F      148       0.00000000       0.00000000       0.00000000
Si      18.40274250      21.34465250      21.47790500  F      149       0.00000000       0.00000000       0.00000000
Si      18.40356000      18.61938000      24.20617500  F      150       0.00000000       0.00000000       0.00000000
Si      15.67774250      21.34819500      24.20862750  F      151       0.00000000       0.00000000       0.00000000
Si      19.76824000      17.25579000      20.11622250  F      152       0.00000000       0.00000000       0.00000000
Si      22.48888000      19.97997250      20.11349750  F      153       0.00000000       0.00000000       0.00000000
Si      19.76388000      19.97970000      22.83931500  F      154       0.00000000       0.00000000       0.00000000
Si      22.48833500      17.25333750      22.83904250  F      155       0.00000000       0.00000000       0.00000000
Si      21.12801500      18.61829000      21.47736000  F      156       0.00000000       0.00000000       0.00000000
Si      23.84811000      21.34220000      21.47654250  F      157       0.00000000       0.00000000       0.00000000
Si      23.84811000      18.61638250      24.20072500  F      158       0.00000000       0.00000000       0.00000000
Si      21.12501750      21.34165500      24.20045250  F      159       0.00000000       0.00000000       0.00000000
Si      25.20843000      22.70497250      20.11431500  F      160       0.00000000       0.00000000       0.00000000
Si       0.68097750      25.42942750      20.11458750  F      161       0.00000000       0.00000000       0.00000000
Si      25.20897500      25.42779250      22.83768000  F      162       0.00000000       0.00000000       0.00000000
Si       0.68016000      22.70579000      22.84040500  F      163       0.00000000       0.00000000       0.00000000
Si      26.57011250      24.06665500      21.47627000  F      164       0.00000000       0.00000000       0.00000000
Si       2.04375000      26.79056500      21.47627000  F      165       0.00000000       0.00000000       0.00000000
Si       2.04347750      24.06692750      24.20127000  F      166       0.00000000       0.00000000       0.00000000
Si      26.57147500      26.78920250      24.19909000  F      167       0.00000000       0.00000000       0.00000000
Si       3.40025500      22.71015000      20.11867500  F      168       0.00000000       0.00000000       0.00000000
Si       6.12770750      25.43378750      20.11758500  F      169       0.00000000       0.00000000       0.00000000
Si       3.40461500      25.43024500      22.84040500  F      170       0.00000000       0.00000000       0.00000000
Si       6.12607250      22.71042250      22.84476500  F      171       0.00000000       0.00000000       0.00000000
Si       4.76575250      24.07047000      21.47926750  F      172       0.00000000       0.00000000       0.00000000
Si       7.49320500      26.79247250      21.47790500  F      173       0.00000000       0.00000000       0.00000000
Si       7.49266000      24.06992500      24.20426750  F      174       0.00000000       0.00000000       0.00000000
Si       4.76875000      26.79056500      24.20099750  F      175       0.00000000       0.00000000       0.00000000
Si       8.84834750      22.71805250      20.12439750  F      176       0.00000000       0.00000000       0.00000000
Si      11.58288500      25.42970000      20.11458750  F      177       0.00000000       0.00000000       0.00000000
Si       8.85488750      25.43297000      22.84258500  F      178       0.00000000       0.00000000       0.00000000
Si      11.57961500      22.71832500      22.85321250  F      179       0.00000000       0.00000000       0.00000000
Si      10.21847750      24.07428500      21.48281000  F      180       0.00000000       0.00000000       0.00000000
Si      12.94756500      26.78974750      21.47599750  F      181       0.00000000       0.00000000       0.00000000
Si      12.94865500      24.07346750      24.20835500  F      182       0.00000000       0.00000000       0.00000000
Si      10.22065750      26.79165500      24.20236000  F      183       0.00000000       0.00000000       0.00000000
Si      14.31115500      22.71260250      20.12085500  F      184       0.00000000       0.00000000       0.00000000
Si      17.03779000      25.42970000      20.11377000  F      185       0.00000000       0.00000000       0.00000000
Si      14.31088250      25.43024500      22.84013250  F      186       0.00000000       0.00000000       0.00000000
Si      17.03833500      22.70579000      22.83986000  F      187       0.00000000       0.00000000       0.00000000
Si      15.67610750      24.07074250      21.47954000  F      188       0.00000000       0.00000000       0.00000000
Si      18.40056250      26.78893000      21.47599750  F      189       0.00000000       0.00000000       0.00000000
Si      18.40110750      24.06611000      24.20018000  F      190       0.00000000       0.00000000       0.00000000
Si      15.67501750      26.78947500      24.20045250  F      191       0.00000000       0.00000000       0.00000000
Si      19.76415250      22.70551750      20.11349750  F      192       0.00000000       0.00000000       0.00000000
Si      22.48670000      25.42724750      20.11322500  F      193       0.00000000       0.00000000       0.00000000
Si      19.76251750      25.42697500      22.83740750  F      194       0.00000000       0.00000000       0.00000000
Si      22.48615500      22.70361000      22.83795250  F      195       0.00000000       0.00000000       0.00000000
Si      21.12501750      24.06611000      21.47599750  F      196       0.00000000       0.00000000       0.00000000
Si      23.84811000      26.78893000      21.47490750  F      197       0.00000000       0.00000000       0.00000000
Si      23.84783750      24.06529250      24.19936250  F      198       0.00000000       0.00000000       0.00000000
Si      21.12474500      26.78838500      24.19854500  F      199       0.00000000       0.00000000       0.00000000
Si      25.21006500       0.90034000      25.56022750  F      200       0.00000000       0.00000000       0.00000000
Si       0.68397500       3.62425000      25.56050000  F      201       0.00000000       0.00000000       0.00000000
Si      25.21142750       3.62316000       1.03250250  F      202       0.00000000       0.00000000       0.00000000
Si       0.68397500       0.90034000       1.03413750  F      203       0.00000000       0.00000000       0.00000000
Si      26.57283750       2.26147750      26.92163750  F      204       0.00000000       0.00000000       0.00000000
Si       2.04620250       4.98538750      26.92218250  F      205       0.00000000       0.00000000       0.00000000
Si       2.04647500       2.26147750       2.39527500  F      206       0.00000000       0.00000000       0.00000000
Si      26.57420000       4.98429750       2.39391250  F      207       0.00000000       0.00000000       0.00000000
Si       3.40679500       0.90170250      25.56186250  F      208       0.00000000       0.00000000       0.00000000
Si       6.13179500       3.62397750      25.56186250  F      209       0.00000000       0.00000000       0.00000000
Si       3.40788500       3.62370500       1.03413750  F      210       0.00000000       0.00000000       0.00000000
Si       6.13179500       0.90088500       1.03522750  F      211       0.00000000       0.00000000       0.00000000
Si       4.76984000       2.26229500      26.92327250  F      212       0.00000000       0.00000000       0.00000000
Si       7.49402250       4.98429750      26.92436250  F      213       0.00000000       0.00000000       0.00000000
Si       7.49456750       2.26147750       2.39609250  F      214       0.00000000       0.00000000       0.00000000
Si       4.76984000       4.98484250       2.39582000  F      215       0.00000000       0.00000000       0.00000000
Si       8.85679500       0.90143000      25.56268000  F      216       0.00000000       0.00000000       0.00000000
Si      11.58452000       3.62070750      25.56377000  F      217       0.00000000       0.00000000       0.00000000
Si       8.85706750       3.62234250       1.03413750  F      218       0.00000000       0.00000000       0.00000000
Si      11.58370250       0.89870500       1.03359250  F      219       0.00000000       0.00000000       0.00000000
Si      10.22038500       2.26066000      26.92409000  F      220       0.00000000       0.00000000       0.00000000
Si      12.94756500       4.98239000      26.92463500  F      221       0.00000000       0.00000000       0.00000000
Si      12.94892750       2.25657250       2.39227750  F      222       0.00000000       0.00000000       0.00000000
Si      10.22065750       4.98266250       2.39418500  F      223       0.00000000       0.00000000       0.00000000
Si      14.31115500       0.89979500      25.56131750  F      224       0.00000000       0.00000000       0.00000000
Si      17.03806250       3.62207000      25.55995500  F      225       0.00000000       0.00000000       0.00000000
Si      14.31170000       3.61934500       1.03250250  F      226       0.00000000       0.00000000       0.00000000
Si      17.03806250       0.89788750       1.03168500  F      227       0.00000000       0.00000000       0.00000000
Si      15.67529000       2.26011500      26.92109250  F      228       0.00000000       0.00000000       0.00000000
Si      18.40165250       4.98375250      26.92000250  F      229       0.00000000       0.00000000       0.00000000
Si      18.40274250       2.25793500       2.39146000  F      230       0.00000000       0.00000000       0.00000000
Si      15.67747000       4.97993750       2.39064250  F      231       0.00000000       0.00000000       0.00000000
Si      19.76251750       0.89925000      25.55968250  F      232       0.00000000       0.00000000       0.00000000
Si      22.48724500       3.62343250      25.55913750  F      233       0.00000000       0.00000000       0.00000000
Si      19.76415250       3.62125250       1.03086750  F      234       0.00000000       0.00000000       0.00000000
Si      22.48724500       0.89897750       1.03250250  F      235       0.00000000       0.00000000       0.00000000
Si      21.12583500       2.26038750      26.92000250  F      236       0.00000000       0.00000000       0.00000000
Si      23.85001750       4.98457000      26.92000250  F      237       0.00000000       0.00000000       0.00000000
Si      23.85083500       2.25957000       2.39336750  F      238       0.00000000       0.00000000       0.00000000
Si      21.12883250       4.98157250       2.39064250  F      239       0.00000000       0.00000000       0.00000000
Si      25.21115500       6.34788750      25.55968250  F      240       0.00000000       0.00000000       0.00000000
Si       0.68370250       9.07288750      25.56104500  F      241       0.00000000       0.00000000       0.00000000
Si      25.21251750       9.07234250       1.03168500  F      242       0.00000000       0.00000000       0.00000000
Si       0.68479250       6.34761500       1.03332000  F      243       0.00000000       0.00000000       0.00000000
Si      26.57311000       7.70957000      26.92136500  F      244       0.00000000       0.00000000       0.00000000
Si       2.04375000      10.43484250      26.92490750  F      245       0.00000000       0.00000000       0.00000000
Si       2.04647500       7.70929750       2.39554750  F      246       0.00000000       0.00000000       0.00000000
Si      26.57420000      10.43457000       2.39336750  F      247       0.00000000       0.00000000       0.00000000
Si       3.40734000       6.34788750      25.56159000  F      248       0.00000000       0.00000000       0.00000000
Si       6.12988750       9.07179750      25.56649500  F      249       0.00000000       0.00000000       0.00000000
Si       3.40706750       9.07234250       1.03495500  F      250       0.00000000       0.00000000       0.00000000
Si       6.13152250       6.34652500       1.03468250  F      251       0.00000000       0.00000000       0.00000000
Si       4.76847750       7.70875250      26.92490750  F      252       0.00000000       0.00000000       0.00000000
Si       7.49293250      10.43511500      26.92790500  F      253       0.00000000       0.00000000       0.00000000
Si       7.49375000       7.70848000       2.39500250  F      254       0.00000000       0.00000000       0.00000000
Si       4.76847750      10.43511500       2.39609250  F      255       0.00000000       0.00000000       0.00000000
Si       8.85706750       6.34570750      25.56486000  F      256       0.00000000       0.00000000       0.00000000
Si      11.58343000       9.07070750      25.56649500  F      257       0.00000000       0.00000000       0.00000000
Si       8.85761250       9.07234250       1.03686250  F      258       0.00000000       0.00000000       0.00000000
Si      11.58452000       6.34570750       1.03495500  F      259       0.00000000       0.00000000       0.00000000
Si      10.22011250       7.70875250      26.92599750  F      260       0.00000000       0.00000000       0.00000000
Si      12.94783750      10.43593250      26.92463500  F      261       0.00000000       0.00000000       0.00000000
Si      12.94892750       7.70766250       2.39445750  F      262       0.00000000       0.00000000       0.00000000
Si      10.22174750      10.43538750       2.39691000  F      263       0.00000000       0.00000000       0.00000000
Si      14.31251750       6.34352750      25.56567750  F      264       0.00000000       0.00000000       0.00000000
Si      17.03860750       9.07179750      25.56377000  F      265       0.00000000       0.00000000       0.00000000
Si      14.31170000       9.07207000       1.03441000  F      266       0.00000000       0.00000000       0.00000000
Si      17.03942500       6.34461750       1.03141250  F      267       0.00000000       0.00000000       0.00000000
Si      15.67529000       7.70875250      26.92381750  F      268       0.00000000       0.00000000       0.00000000
Si      18.40165250      10.43511500      26.92381750  F      269       0.00000000       0.00000000       0.00000000
Si      18.40519500       7.70521000       2.39009750  F      270       0.00000000       0.00000000       0.00000000
Si      15.67638000      10.43402500       2.39500250  F      271       0.00000000       0.00000000       0.00000000
Si      19.76333500       6.34707000      25.55941000  F      272       0.00000000       0.00000000       0.00000000
Si      22.48833500       9.07234250      25.55995500  F      273       0.00000000       0.00000000       0.00000000
Si      19.76578750       9.07098000       1.03141250  F      274       0.00000000       0.00000000       0.00000000
Si      22.48915250       6.34652500       1.03086750  F      275       0.00000000       0.00000000       0.00000000
Si      21.12665250       7.70902500      26.92000250  F      276       0.00000000       0.00000000       0.00000000
Si      23.85029000      10.43511500      26.92109250  F      277       0.00000000       0.00000000       0.00000000
Si      23.85247000       7.70766250       2.39146000  F      278       0.00000000       0.00000000       0.00000000
Si      21.13074000      10.43293500       2.39064250  F      279       0.00000000       0.00000000       0.00000000
Si      25.21061000      11.79925000      25.56131750  F      280       0.00000000       0.00000000       0.00000000
Si       0.67907000      14.52779250      25.56595000  F      281       0.00000000       0.00000000       0.00000000
Si      25.21170000      14.52697500       1.03359250  F      282       0.00000000       0.00000000       0.00000000
Si       0.68288500      11.79925000       1.03359250  F      283       0.00000000       0.00000000       0.00000000
Si      26.57038500      13.16202250      26.92381750  F      284       0.00000000       0.00000000       0.00000000
Si       2.04157000      15.89002000      26.92736000  F      285       0.00000000       0.00000000       0.00000000
Si       2.04293250      13.16256750       2.39473000  F      286       0.00000000       0.00000000       0.00000000
Si      26.57147500      15.88974750       2.39582000  F      287       0.00000000       0.00000000       0.00000000
Si       3.40298000      11.79952250      25.56704000  F      288       0.00000000       0.00000000       0.00000000
Si       6.12471000      14.52888250      25.57140000  F      289       0.00000000       0.00000000       0.00000000
Si       3.40488750      14.52724750       1.03740750  F      290       0.00000000       0.00000000       0.00000000
Si       6.13125000      11.79952250       1.03795250  F      291       0.00000000       0.00000000       0.00000000
Si       4.76575250      13.16229500      26.92899500  F      292       0.00000000       0.00000000       0.00000000
Si       7.49266000      15.89056500      26.92899500  F      293       0.00000000       0.00000000       0.00000000
Si       7.49538500      13.16229500       2.39854500  F      294       0.00000000       0.00000000       0.00000000
Si       4.76820500      15.89002000       2.39745500  F      295       0.00000000       0.00000000       0.00000000
Si       8.85379750      11.79925000      25.56867500  F      296       0.00000000       0.00000000       0.00000000
Si      11.58234000      14.52806500      25.56513250  F      297       0.00000000       0.00000000       0.00000000
Si       8.85788500      14.52643000       1.03795250  F      298       0.00000000       0.00000000       0.00000000
Si      11.58479250      11.79952250       1.03631750  F      299       0.00000000       0.00000000       0.00000000
Si      10.22038500      13.16311250      26.92627000  F      300       0.00000000       0.00000000       0.00000000
Si      12.94729250      15.89002000      26.92627000  F      301       0.00000000       0.00000000       0.00000000
Si      12.94892750      13.16147750       2.39800000  F      302       0.00000000       0.00000000       0.00000000
Si      10.22174750      15.88865750       2.39909000  F      303       0.00000000       0.00000000       0.00000000
Si      14.31061000      11.79979500      25.56295250  F      304       0.00000000       0.00000000       0.00000000
Si      17.03969750      14.52697500      25.56649500  F      305       0.00000000       0.00000000       0.00000000
Si      14.31115500      14.52561250       1.03631750  F      306       0.00000000       0.00000000       0.00000000
Si      17.03833500      11.79870500       1.03441000  F      307       0.00000000       0.00000000       0.00000000
Si      15.67447250      13.16256750      26.92463500  F      308       0.00000000       0.00000000       0.00000000
Si      18.40192500      15.89029250      26.92599750  F      309       0.00000000       0.00000000       0.00000000
Si      18.40274250      13.16147750       2.39445750  F      310       0.00000000       0.00000000       0.00000000
Si      15.67501750      15.88865750       2.39691000  F      311       0.00000000       0.00000000       0.00000000
Si      19.76687750      11.79816000      25.56567750  F      312       0.00000000       0.00000000       0.00000000
Si      22.48969750      14.52615750      25.56377000  F      313       0.00000000       0.00000000       0.00000000
Si      19.76497000      14.52588500       1.03495500  F      314       0.00000000       0.00000000       0.00000000
Si      22.49106000      11.79870500       1.03250250  F      315       0.00000000       0.00000000       0.00000000
Si      21.12801500      13.16284000      26.92463500  F      316       0.00000000       0.00000000       0.00000000
Si      23.84974500      15.89002000      26.92409000  F      317       0.00000000       0.00000000       0.00000000
Si      23.85383250      13.16175000       2.39227750  F      318       0.00000000       0.00000000       0.00000000
Si      21.12801500      15.88974750       2.39418500  F      319       0.00000000       0.00000000       0.00000000
Si      25.20897500      17.25361000      25.56268000  F      320       0.00000000       0.00000000       0.00000000
Si       0.68070500      19.98024500      25.56431500  F      321       0.00000000       0.00000000       0.00000000
Si      25.20952000      19.97861000       1.03522750  F      322       0.00000000       0.00000000       0.00000000
Si       0.68179500      17.25388250       1.03659000  F      323       0.00000000       0.00000000       0.00000000
Si      26.57038500      18.61611000      26.92436250  F      324       0.00000000       0.00000000       0.00000000
Si       2.04375000      21.34192750      26.92518000  F      325       0.00000000       0.00000000       0.00000000
Si       2.04429500      18.61611000       2.39745500  F      326       0.00000000       0.00000000       0.00000000
Si      26.57174750      21.34056500       2.39663750  F      327       0.00000000       0.00000000       0.00000000
Si       3.40080000      17.25660750      25.56922000  F      328       0.00000000       0.00000000       0.00000000
Si       6.12634500      19.98406000      25.57031000  F      329       0.00000000       0.00000000       0.00000000
Si       3.40516000      19.98024500       1.03768000  F      330       0.00000000       0.00000000       0.00000000
Si       6.13016000      17.25415500       1.03795250  F      331       0.00000000       0.00000000       0.00000000
Si       4.76629750      18.61774500      26.92872250  F      332       0.00000000       0.00000000       0.00000000
Si       7.49293250      21.34438000      26.92872250  F      333       0.00000000       0.00000000       0.00000000
Si       7.49347750      18.61692750       2.39772750  F      334       0.00000000       0.00000000       0.00000000
Si       4.76847750      21.34220000       2.39772750  F      335       0.00000000       0.00000000       0.00000000
Si       8.85379750      17.25688000      25.56976500  F      336       0.00000000       0.00000000       0.00000000
Si      11.58152250      19.98569500      25.57140000  F      337       0.00000000       0.00000000       0.00000000
Si       8.85625000      19.98024500       1.03795250  F      338       0.00000000       0.00000000       0.00000000
Si      11.58397500      17.25279250       1.03795250  F      339       0.00000000       0.00000000       0.00000000
Si      10.21984000      18.61774500      26.92899500  F      340       0.00000000       0.00000000       0.00000000
Si      12.94811000      21.34465250      26.92899500  F      341       0.00000000       0.00000000       0.00000000
Si      12.94811000      18.61529250       2.39854500  F      342       0.00000000       0.00000000       0.00000000
Si      10.22038500      21.34220000       2.39745500  F      343       0.00000000       0.00000000       0.00000000
Si      14.31115500      17.25660750      25.56867500  F      344       0.00000000       0.00000000       0.00000000
Si      17.03860750      19.98051750      25.56649500  F      345       0.00000000       0.00000000       0.00000000
Si      14.31088250      19.97915500       1.03795250  F      346       0.00000000       0.00000000       0.00000000
Si      17.03806250      17.25279250       1.03686250  F      347       0.00000000       0.00000000       0.00000000
Si      15.67529000      18.61774500      26.92790500  F      348       0.00000000       0.00000000       0.00000000
Si      18.40165250      21.34220000      26.92490750  F      349       0.00000000       0.00000000       0.00000000
Si      18.40192500      18.61665500       2.39500250  F      350       0.00000000       0.00000000       0.00000000
Si      15.67529000      21.34220000       2.39609250  F      351       0.00000000       0.00000000       0.00000000
Si      19.76469750      17.25333750      25.56486000  F      352       0.00000000       0.00000000       0.00000000
Si      22.48642750      19.97861000      25.56186250  F      353       0.00000000       0.00000000       0.00000000
Si      19.76388000      19.97888250       1.03468250  F      354       0.00000000       0.00000000       0.00000000
Si      22.48806250      17.25333750       1.03413750  F      355       0.00000000       0.00000000       0.00000000
Si      21.12610750      18.61638250      26.92436250  F      356       0.00000000       0.00000000       0.00000000
Si      23.84811000      21.34056500      26.92327250  F      357       0.00000000       0.00000000       0.00000000
Si      23.84892750      18.61583750       2.39609250  F      358       0.00000000       0.00000000       0.00000000
Si      21.12556250      21.34056500       2.39582000  F      359       0.00000000       0.00000000       0.00000000
Si      25.20897500      22.70361000      25.56186250  F      360       0.00000000       0.00000000       0.00000000
Si       0.68234000      25.42806500      25.56213500  F      361       0.00000000       0.00000000       0.00000000
Si      25.21006500      25.42643000       1.03413750  F      362       0.00000000       0.00000000       0.00000000
Si       0.68261250      22.70361000       1.03577250  F      363       0.00000000       0.00000000       0.00000000
Si      26.57147500      24.06502000      26.92300000  F      364       0.00000000       0.00000000       0.00000000
Si       2.04538500      26.78893000      26.92300000  F      365       0.00000000       0.00000000       0.00000000
Si       2.04538500      24.06502000       2.39663750  F      366       0.00000000       0.00000000       0.00000000
Si      26.57283750      26.78756750       2.39527500  F      367       0.00000000       0.00000000       0.00000000
Si       3.40461500      22.70606250      25.56486000  F      368       0.00000000       0.00000000       0.00000000
Si       6.13016000      25.42997250      25.56431500  F      369       0.00000000       0.00000000       0.00000000
Si       3.40679500      25.42779250       1.03577250  F      370       0.00000000       0.00000000       0.00000000
Si       6.13016000      22.70524500       1.03768000  F      371       0.00000000       0.00000000       0.00000000
Si       4.76875000      24.06665500      26.92518000  F      372       0.00000000       0.00000000       0.00000000
Si       7.49429500      26.79002000      26.92436250  F      373       0.00000000       0.00000000       0.00000000
Si       7.49429500      24.06611000       2.39745500  F      374       0.00000000       0.00000000       0.00000000
Si       4.76984000      26.78865750       2.39663750  F      375       0.00000000       0.00000000       0.00000000
Si       8.85407000      22.70960500      25.56922000  F      376       0.00000000       0.00000000       0.00000000
Si      11.58288500      25.43160750      25.56595000  F      377       0.00000000       0.00000000       0.00000000
Si       8.85652250      25.42861000       1.03659000  F      378       0.00000000       0.00000000       0.00000000
Si      11.58343000      22.70551750       1.03740750  F      379       0.00000000       0.00000000       0.00000000
Si      10.22038500      24.06883500      26.92736000  F      380       0.00000000       0.00000000       0.00000000
Si      12.94838250      26.79002000      26.92381750  F      381       0.00000000       0.00000000       0.00000000
Si      12.94783750      24.06774500       2.39473000  F      382       0.00000000       0.00000000       0.00000000
Si      10.22065750      26.78893000       2.39582000  F      383       0.00000000       0.00000000       0.00000000
Si      14.31088250      22.70742500      25.56704000  F      384       0.00000000       0.00000000       0.00000000
Si      17.03751750      25.42670250      25.56104500  F      385       0.00000000       0.00000000       0.00000000
Si      14.31142750      25.42752000       1.03359250  F      386       0.00000000       0.00000000       0.00000000
Si      17.03806250      22.70333750       1.03495500  F      387       0.00000000       0.00000000       0.00000000
Si      15.67583500      24.06665500      26.92490750  F      388       0.00000000       0.00000000       0.00000000
Si      18.40083500      26.78729500      26.92136500  F      389       0.00000000       0.00000000       0.00000000
Si      18.40110750      24.06393000       2.39554750  F      390       0.00000000       0.00000000       0.00000000
Si      15.67583500      26.78620500       2.39336750  F      391       0.00000000       0.00000000       0.00000000
Si      19.76251750      22.70306500      25.56159000  F      392       0.00000000       0.00000000       0.00000000
Si      22.48615500      25.42670250      25.56050000  F      393       0.00000000       0.00000000       0.00000000
Si      19.76279000      25.42561250       1.03332000  F      394       0.00000000       0.00000000       0.00000000
Si      22.48670000      22.70252000       1.03413750  F      395       0.00000000       0.00000000       0.00000000
Si      21.12501750      24.06447500      26.92218250  F      396       0.00000000       0.00000000       0.00000000
Si      23.84892750      26.78784000      26.92163750  F      397       0.00000000       0.00000000       0.00000000
Si      23.84920000      24.06393000       2.39527500  F      398       0.00000000       0.00000000       0.00000000
Si      21.12610750      26.78620500       2.39391250  F      399       0.00000000       0.00000000       0.00000000
Si      25.21170000       0.89870500       3.75641250  F      400       0.00000000       0.00000000       0.00000000
Si       0.68533750       3.62288750       3.75641250  F      401       0.00000000       0.00000000       0.00000000
Si      25.21388000       3.62043500       6.47950500  F      402       0.00000000       0.00000000       0.00000000
Si       0.68506500       0.89870500       6.48114000  F      403       0.00000000       0.00000000       0.00000000
Si      26.57447250       2.25984250       5.11782250  F      404       0.00000000       0.00000000       0.00000000
Si       2.04702000       4.98429750       5.11836750  F      405       0.00000000       0.00000000       0.00000000
Si       2.04674750       2.26038750       7.84282250  F      406       0.00000000       0.00000000       0.00000000
Si      26.57610750       4.98184500       7.84118750  F      407       0.00000000       0.00000000       0.00000000
Si       3.40788500       0.89979500       3.75750250  F      408       0.00000000       0.00000000       0.00000000
Si       6.13179500       3.62261500       3.75695750  F      409       0.00000000       0.00000000       0.00000000
Si       3.40788500       3.62234250       6.48059500  F      410       0.00000000       0.00000000       0.00000000
Si       6.13097750       0.89843250       6.48032250  F      411       0.00000000       0.00000000       0.00000000
Si       4.76984000       2.26093250       5.11891250  F      412       0.00000000       0.00000000       0.00000000
Si       7.49402250       4.98320750       5.11782250  F      413       0.00000000       0.00000000       0.00000000
Si       7.49375000       2.25711750       7.84227750  F      414       0.00000000       0.00000000       0.00000000
Si       4.76902250       4.98320750       7.84282250  F      415       0.00000000       0.00000000       0.00000000
Si       8.85679500       0.89870500       3.75641250  F      416       0.00000000       0.00000000       0.00000000
Si      11.58288500       3.61525750       3.75069000  F      417       0.00000000       0.00000000       0.00000000
Si       8.85488750       3.61662000       6.47732500  F      418       0.00000000       0.00000000       0.00000000
Si      11.58370250       0.89489000       6.47841500  F      419       0.00000000       0.00000000       0.00000000
Si      10.22065750       2.25739000       5.11700500  F      420       0.00000000       0.00000000       0.00000000
Si      12.95110750       4.97094500       5.10610500  F      421       0.00000000       0.00000000       0.00000000
Si      12.94974500       2.25275750       7.83737250  F      422       0.00000000       0.00000000       0.00000000
Si      10.21902250       4.97448750       7.83601000  F      423       0.00000000       0.00000000       0.00000000
Si      14.31170000       0.89489000       3.75314250  F      424       0.00000000       0.00000000       0.00000000
Si      17.04024250       3.61716500       3.75178000  F      425       0.00000000       0.00000000       0.00000000
Si      14.31306250       3.60871750       6.46915000  F      426       0.00000000       0.00000000       0.00000000
Si      17.03997000       0.89380000       6.47732500  F      427       0.00000000       0.00000000       0.00000000
Si      15.67856000       2.25221250       5.11155500  F      428       0.00000000       0.00000000       0.00000000
Si      18.40819250       4.97585000       5.10992000  F      429       0.00000000       0.00000000       0.00000000
Si      18.40710250       2.25112250       7.83737250  F      430       0.00000000       0.00000000       0.00000000
Si      15.68700750       4.96113500       7.82320250  F      431       0.00000000       0.00000000       0.00000000
Si      19.76442500       0.89707000       3.75450500  F      432       0.00000000       0.00000000       0.00000000
Si      22.48969750       3.62070750       3.75423250  F      433       0.00000000       0.00000000       0.00000000
Si      19.76824000       3.61607500       6.47623500  F      434       0.00000000       0.00000000       0.00000000
Si      22.48997000       0.89652500       6.47950500  F      435       0.00000000       0.00000000       0.00000000
Si      21.12910500       2.25684500       5.11509750  F      436       0.00000000       0.00000000       0.00000000
Si      23.85383250       4.98130000       5.11509750  F      437       0.00000000       0.00000000       0.00000000
Si      23.85328750       2.25711750       7.84091500  F      438       0.00000000       0.00000000       0.00000000
Si      21.13482750       4.97557750       7.83628250  F      439       0.00000000       0.00000000       0.00000000
Si      25.21333500       6.34598000       3.75450500  F      440       0.00000000       0.00000000       0.00000000
Si       0.68506500       9.07207000       3.75559500  F      441       0.00000000       0.00000000       0.00000000
Si      25.21660500       9.07043500       6.47732500  F      442       0.00000000       0.00000000       0.00000000
Si       0.68533750       6.34570750       6.47950500  F      443       0.00000000       0.00000000       0.00000000
Si      26.57556250       7.70793500       5.11618750  F      444       0.00000000       0.00000000       0.00000000
Si       2.04429500      10.43538750       5.11782250  F      445       0.00000000       0.00000000       0.00000000
Si       2.04429500       7.70848000       7.84227750  F      446       0.00000000       0.00000000       0.00000000
Si      26.57420000      10.43457000       7.84227750  F      447       0.00000000       0.00000000       0.00000000
Si       3.40815750       6.34679750       3.75695750  F      448       0.00000000       0.00000000       0.00000000
Si       6.13070500       9.07070750       3.75559500  F      449       0.00000000       0.00000000       0.00000000
Si       3.40434250       9.07043500       6.47868750  F      450       0.00000000       0.00000000       0.00000000
Si       6.13070500       6.34516250       6.47950500  F      451       0.00000000       0.00000000       0.00000000
Si       4.76902250       7.70902500       5.11836750  F      452       0.00000000       0.00000000       0.00000000
Si       7.49266000      10.43293500       5.11509750  F      453       0.00000000       0.00000000       0.00000000
Si       7.49238750       7.70630000       7.84009750  F      454       0.00000000       0.00000000       0.00000000
Si       4.76302750      10.43375250       7.83900750  F      455       0.00000000       0.00000000       0.00000000
Si       8.85570500       6.34407250       3.75396000  F      456       0.00000000       0.00000000       0.00000000
Si      11.58506500       9.06989000       3.75559500  F      457       0.00000000       0.00000000       0.00000000
Si       8.85597750       9.06689250       6.47405500  F      458       0.00000000       0.00000000       0.00000000
Si      11.58043250       6.32527000       6.46015750  F      459       0.00000000       0.00000000       0.00000000
Si      10.21984000       7.70384750       5.11237250  F      460       0.00000000       0.00000000       0.00000000
Si      12.95110750      10.42993750       5.11646000  F      461       0.00000000       0.00000000       0.00000000
Si      12.95683000       7.67223750       7.80794250  F      462       0.00000000       0.00000000       0.00000000
Si      10.21875000      10.42557750       7.83573750  F      463       0.00000000       0.00000000       0.00000000
Si      14.31333500       6.33944000       3.74932750  F      464       0.00000000       0.00000000       0.00000000
Si      17.04324000       9.06716500       3.74905500  F      465       0.00000000       0.00000000       0.00000000
Si      14.31933000       9.05381250       6.46206500  F      466       0.00000000       0.00000000       0.00000000
Si      17.04651000       6.33426250       6.46806000  F      467       0.00000000       0.00000000       0.00000000
Si      15.68346500       7.69703500       5.10528750  F      468       0.00000000       0.00000000       0.00000000
Si      18.41337000      10.42694000       5.10528750  F      469       0.00000000       0.00000000       0.00000000
Si      18.41827500       7.69213000       7.82483750  F      470       0.00000000       0.00000000       0.00000000
Si      15.69927000      10.41140750       7.81094000  F      471       0.00000000       0.00000000       0.00000000
Si      19.76796750       6.34243750       3.75069000  F      472       0.00000000       0.00000000       0.00000000
Si      22.49324000       9.07043500       3.75178000  F      473       0.00000000       0.00000000       0.00000000
Si      19.77641500       9.06389500       6.46806000  F      474       0.00000000       0.00000000       0.00000000
Si      22.49433000       6.34216500       6.47623500  F      475       0.00000000       0.00000000       0.00000000
Si      21.13455500       7.70221250       5.10992000  F      476       0.00000000       0.00000000       0.00000000
Si      23.85819250      10.43211750       5.11155500  F      477       0.00000000       0.00000000       0.00000000
Si      23.85928250       7.70330250       7.83737250  F      478       0.00000000       0.00000000       0.00000000
Si      21.14927000      10.42339750       7.82320250  F      479       0.00000000       0.00000000       0.00000000
Si      25.21578750      11.79897750       3.75314250  F      480       0.00000000       0.00000000       0.00000000
Si       0.68261250      14.52643000       3.75559500  F      481       0.00000000       0.00000000       0.00000000
Si      25.21578750      14.52670250       6.47841500  F      482       0.00000000       0.00000000       0.00000000
Si       0.68370250      11.79843250       6.48005000  F      483       0.00000000       0.00000000       0.00000000
Si      26.57447250      13.16202250       5.11700500  F      484       0.00000000       0.00000000       0.00000000
Si       2.04184250      15.89056500       5.11646000  F      485       0.00000000       0.00000000       0.00000000
Si       2.04266000      13.16284000       7.84173250  F      486       0.00000000       0.00000000       0.00000000
Si      26.57420000      15.88974750       7.84336750  F      487       0.00000000       0.00000000       0.00000000
Si       3.40352500      11.79816000       3.75396000  F      488       0.00000000       0.00000000       0.00000000
Si       6.13070500      14.52643000       3.75723000  F      489       0.00000000       0.00000000       0.00000000
Si       3.40052750      14.52588500       6.47541750  F      490       0.00000000       0.00000000       0.00000000
Si       6.11926000      11.79434500       6.46806000  F      491       0.00000000       0.00000000       0.00000000
Si       4.76221000      13.16338500       5.11237250  F      492       0.00000000       0.00000000       0.00000000
Si       7.49293250      15.89111000       5.11727750  F      493       0.00000000       0.00000000       0.00000000
Si       7.47140500      13.16583750       7.82075000  F      494       0.00000000       0.00000000       0.00000000
Si       4.75621500      15.89519750       7.83355750  F      495       0.00000000       0.00000000       0.00000000
Si       8.85870250      11.79816000       3.75886500  F      496       0.00000000       0.00000000       0.00000000
Si      11.58588250      14.52479500       3.76022750  F      497       0.00000000       0.00000000       0.00000000
Si       8.85461500      14.52697500       6.47705250  F      498       0.00000000       0.00000000       0.00000000
Si       7.46023250      15.90228250      10.54384250  F      499       0.00000000       0.00000000       0.00000000
Si      10.22256500      13.16038750       5.12136500  F      500       0.00000000       0.00000000       0.00000000
Si      12.95001750      15.88811250       5.12136500  F      501       0.00000000       0.00000000       0.00000000
Si      10.21902250      15.89138250       7.83791750  F      502       0.00000000       0.00000000       0.00000000
Si      14.31769500      14.52343250       6.47950500  F      503       0.00000000       0.00000000       0.00000000
Si      14.31360750      11.79679750       3.75723000  F      504       0.00000000       0.00000000       0.00000000
Si      17.04051500      14.52534000       3.75559500  F      505       0.00000000       0.00000000       0.00000000
Si      11.58724500      11.79271000       6.47950500  F      506       0.00000000       0.00000000       0.00000000
Si      17.05659250      11.79134750       6.46206500  F      507       0.00000000       0.00000000       0.00000000
Si      15.68046750      13.15929750       5.11646000  F      508       0.00000000       0.00000000       0.00000000
Si      18.40683000      15.89056500       5.11237250  F      509       0.00000000       0.00000000       0.00000000
Si      18.43816750      13.15357500       7.80794250  F      510       0.00000000       0.00000000       0.00000000
Si      15.68482750      15.89165500       7.83573750  F      511       0.00000000       0.00000000       0.00000000
Si      19.77096500      11.79734250       3.74932750  F      512       0.00000000       0.00000000       0.00000000
Si      22.49542000      14.52752000       3.75069000  F      513       0.00000000       0.00000000       0.00000000
Si      19.78513500      14.52997250       6.46015750  F      514       0.00000000       0.00000000       0.00000000
Si      22.50196000      11.79734250       6.46915000  F      515       0.00000000       0.00000000       0.00000000
Si      21.13946000      13.15929750       5.10610500  F      516       0.00000000       0.00000000       0.00000000
Si      23.85328750      15.88974750       5.11700500  F      517       0.00000000       0.00000000       0.00000000
Si      23.85792000      13.16066000       7.83737250  F      518       0.00000000       0.00000000       0.00000000
Si      21.13591750      15.89138250       7.83601000  F      519       0.00000000       0.00000000       0.00000000
Si      25.21170000      17.25361000       3.75641250  F      520       0.00000000       0.00000000       0.00000000
Si       0.68343000      19.97888250       3.75832000  F      521       0.00000000       0.00000000       0.00000000
Si      25.21197250      19.97942750       6.48032250  F      522       0.00000000       0.00000000       0.00000000
Si       0.68234000      17.25333750       6.47977750  F      523       0.00000000       0.00000000       0.00000000
Si      26.57202000      18.61611000       5.11864000  F      524       0.00000000       0.00000000       0.00000000
Si       2.04511250      21.34138250       5.11945750  F      525       0.00000000       0.00000000       0.00000000
Si       2.04075250      18.61883500       7.84118750  F      526       0.00000000       0.00000000       0.00000000
Si      26.57174750      21.34192750       7.84282250  F      527       0.00000000       0.00000000       0.00000000
Si       3.40625000      17.25333750       3.75777500  F      528       0.00000000       0.00000000       0.00000000
Si       6.13070500      19.97970000       3.75777500  F      529       0.00000000       0.00000000       0.00000000
Si       3.40597750      19.97942750       6.48114000  F      530       0.00000000       0.00000000       0.00000000
Si       6.12852500      17.25470000       6.47787000  F      531       0.00000000       0.00000000       0.00000000
Si       4.76766000      18.61774500       5.11809500  F      532       0.00000000       0.00000000       0.00000000
Si       7.49293250      21.34301750       5.11809500  F      533       0.00000000       0.00000000       0.00000000
Si       7.49048000      18.61992500       7.83846250  F      534       0.00000000       0.00000000       0.00000000
Si       4.76738750      21.34329000       7.84255000  F      535       0.00000000       0.00000000       0.00000000
Si       8.85679500      17.25361000       3.75695750  F      536       0.00000000       0.00000000       0.00000000
Si      11.58397500      19.97970000       3.75723000  F      537       0.00000000       0.00000000       0.00000000
Si       8.85570500      19.98215250       6.47787000  F      538       0.00000000       0.00000000       0.00000000
Si      12.95846500      13.15194000       7.83873500  F      539       0.00000000       0.00000000       0.00000000
Si      10.21929500      18.61747250       5.11727750  F      540       0.00000000       0.00000000       0.00000000
Si      12.94702000      21.34819500       5.11237250  F      541       0.00000000       0.00000000       0.00000000
Si      12.94456750      18.63927250       7.82075000  F      542       0.00000000       0.00000000       0.00000000
Si      10.21520750      21.35446250       7.83355750  F      543       0.00000000       0.00000000       0.00000000
Si      14.31224500      17.25170250       3.75886500  F      544       0.00000000       0.00000000       0.00000000
Si      17.03969750      19.97970000       3.75559500  F      545       0.00000000       0.00000000       0.00000000
Si      14.31606000      19.99114500       6.46806000  F      546       0.00000000       0.00000000       0.00000000
Si      17.04351250      17.25442750       6.47405500  F      547       0.00000000       0.00000000       0.00000000
Si      15.67747000      18.61801750       5.11509750  F      548       0.00000000       0.00000000       0.00000000
Si      18.40165250      21.34138250       5.11836750  F      549       0.00000000       0.00000000       0.00000000
Si      18.40410500      18.61829000       7.84009750  F      550       0.00000000       0.00000000       0.00000000
Si      15.67665250      21.34737750       7.83900750  F      551       0.00000000       0.00000000       0.00000000
Si      19.76633250      17.25470000       3.75396000  F      552       0.00000000       0.00000000       0.00000000
Si      22.48779000      19.97888250       3.75695750  F      553       0.00000000       0.00000000       0.00000000
Si      19.76551500      19.97970000       6.47950500  F      554       0.00000000       0.00000000       0.00000000
Si      22.49378500      17.25551750       6.47732500  F      555       0.00000000       0.00000000       0.00000000
Si      21.12747000      18.61638250       5.11782250  F      556       0.00000000       0.00000000       0.00000000
Si      23.84947250      21.34056500       5.11891250  F      557       0.00000000       0.00000000       0.00000000
Si      23.85328750      18.61692750       7.84227750  F      558       0.00000000       0.00000000       0.00000000
Si      21.12719750      21.34165500       7.84282250  F      559       0.00000000       0.00000000       0.00000000
Si      25.21061000      22.70252000       3.75750250  F      560       0.00000000       0.00000000       0.00000000
Si       0.68397500      25.42643000       3.75777500  F      561       0.00000000       0.00000000       0.00000000
Si      25.21170000      25.42534000       6.48114000  F      562       0.00000000       0.00000000       0.00000000
Si       0.68397500      22.70306500       6.48141250  F      563       0.00000000       0.00000000       0.00000000
Si      26.57256500      24.06420250       5.11918500  F      564       0.00000000       0.00000000       0.00000000
Si       2.04620250      26.78784000       5.11918500  F      565       0.00000000       0.00000000       0.00000000
Si       2.04511250      24.06529250       7.84309500  F      566       0.00000000       0.00000000       0.00000000
Si      26.57365500      26.78675000       7.84282250  F      567       0.00000000       0.00000000       0.00000000
Si       3.40679500      22.70361000       3.75859250  F      568       0.00000000       0.00000000       0.00000000
Si       6.13152250      25.42697500       3.75832000  F      569       0.00000000       0.00000000       0.00000000
Si       3.40734000      25.42643000       6.48141250  F      570       0.00000000       0.00000000       0.00000000
Si       6.13097750      22.70442750       6.48114000  F      571       0.00000000       0.00000000       0.00000000
Si       4.76902250      24.06556500       5.11945750  F      572       0.00000000       0.00000000       0.00000000
Si       7.49429500      26.78838500       5.11864000  F      573       0.00000000       0.00000000       0.00000000
Si       7.49184250      24.06965250       7.84118750  F      574       0.00000000       0.00000000       0.00000000
Si       4.76847750      26.78893000       7.84282250  F      575       0.00000000       0.00000000       0.00000000
Si       8.85706750      22.70442750       3.75777500  F      576       0.00000000       0.00000000       0.00000000
Si      11.58397500      25.42779250       3.75559500  F      577       0.00000000       0.00000000       0.00000000
Si       8.85706750      25.42806500       6.47977750  F      578       0.00000000       0.00000000       0.00000000
Si      11.58452000      22.70987750       6.47541750  F      579       0.00000000       0.00000000       0.00000000
Si      10.21984000      24.06856250       5.11646000  F      580       0.00000000       0.00000000       0.00000000
Si      12.94838250      26.78620500       5.11700500  F      581       0.00000000       0.00000000       0.00000000
Si      12.94756500      24.06774500       7.84173250  F      582       0.00000000       0.00000000       0.00000000
Si      10.22093000      26.78620500       7.84336750  F      583       0.00000000       0.00000000       0.00000000
Si      14.31224500      22.70715250       3.75396000  F      584       0.00000000       0.00000000       0.00000000
Si      17.03833500      25.42561250       3.75559500  F      585       0.00000000       0.00000000       0.00000000
Si      14.31197250      25.42670250       6.48005000  F      586       0.00000000       0.00000000       0.00000000
Si      17.03997000      22.70633500       6.47868750  F      587       0.00000000       0.00000000       0.00000000
Si      15.67529000      24.06611000       5.11782250  F      588       0.00000000       0.00000000       0.00000000
Si      18.40274250      26.78484250       5.11618750  F      589       0.00000000       0.00000000       0.00000000
Si      18.40219750      24.06638250       7.84227750  F      590       0.00000000       0.00000000       0.00000000
Si      15.67583500      26.78620500       7.84227750  F      591       0.00000000       0.00000000       0.00000000
Si      19.76360750      22.70252000       3.75695750  F      592       0.00000000       0.00000000       0.00000000
Si      22.48779000      25.42506750       3.75641250  F      593       0.00000000       0.00000000       0.00000000
Si      19.76497000      25.42506750       6.47950500  F      594       0.00000000       0.00000000       0.00000000
Si      22.48833500      22.70252000       6.48059500  F      595       0.00000000       0.00000000       0.00000000
Si      21.12610750      24.06338500       5.11836750  F      596       0.00000000       0.00000000       0.00000000
Si      23.85083500      26.78593250       5.11782250  F      597       0.00000000       0.00000000       0.00000000
Si      23.85001750      24.06365750       7.84282250  F      598       0.00000000       0.00000000       0.00000000
Si      21.12856000      26.78429750       7.84118750  F      599       0.00000000       0.00000000       0.00000000
Si      25.21333500       0.89734250       9.20559500  F      600       0.00000000       0.00000000       0.00000000
Si       0.68533750       3.62098000       9.20532250  F      601       0.00000000       0.00000000       0.00000000
Si      25.21606000       3.61825500      11.93223000  F      602       0.00000000       0.00000000       0.00000000
Si       0.68370250       0.89788750      11.93223000  F      603       0.00000000       0.00000000       0.00000000
Si      26.57501750       2.25848000      10.56809500  F      604       0.00000000       0.00000000       0.00000000
Si       2.04456750       4.98293500      10.56891250  F      605       0.00000000       0.00000000       0.00000000
Si       2.04293250       2.25820750      13.29663750  F      606       0.00000000       0.00000000       0.00000000
Si      26.57392750       4.98293500      13.29582000  F      607       0.00000000       0.00000000       0.00000000
Si       3.40679500       0.89870500       9.20559500  F      608       0.00000000       0.00000000       0.00000000
Si       6.12934250       3.61771000       9.20341500  F      609       0.00000000       0.00000000       0.00000000
Si       3.40216250       3.61689250      11.93114000  F      610       0.00000000       0.00000000       0.00000000
Si       6.13070500       0.89816000      11.93250250  F      611       0.00000000       0.00000000       0.00000000
Si       4.76793250       2.25848000      10.56891250  F      612       0.00000000       0.00000000       0.00000000
Si       7.49048000       4.97666750      10.56537000  F      613       0.00000000       0.00000000       0.00000000
Si       7.49293250       2.25793500      13.29554750  F      614       0.00000000       0.00000000       0.00000000
Si       4.75948500       4.97448750      13.29691000  F      615       0.00000000       0.00000000       0.00000000
Si       8.85679500       0.89625250       9.20532250  F      616       0.00000000       0.00000000       0.00000000
Si      11.58261250       3.61035250       9.19660250  F      617       0.00000000       0.00000000       0.00000000
Si       8.85488750       3.61580250      11.92841500  F      618       0.00000000       0.00000000       0.00000000
Si      11.58479250       0.89843250      11.93250250  F      619       0.00000000       0.00000000       0.00000000
Si      10.22038500       2.25575500      10.56673250  F      620       0.00000000       0.00000000       0.00000000
Si      12.95274250       4.96549500      10.55147250  F      621       0.00000000       0.00000000       0.00000000
Si      12.94947250       2.26011500      13.29445750  F      622       0.00000000       0.00000000       0.00000000
Si      10.21820500       4.97585000      13.28900750  F      623       0.00000000       0.00000000       0.00000000
Si      14.31224500       0.89570750       9.20505000  F      624       0.00000000       0.00000000       0.00000000
Si      17.04542000       3.60817250       9.19796500  F      625       0.00000000       0.00000000       0.00000000
Si      14.31578750       3.61689250      11.92868750  F      626       0.00000000       0.00000000       0.00000000
Si      17.03969750       0.89543500      11.93195750  F      627       0.00000000       0.00000000       0.00000000
Si      15.67856000       2.25521000      10.56646000  F      628       0.00000000       0.00000000       0.00000000
Si      18.41773000       4.96249750      10.55719500  F      629       0.00000000       0.00000000       0.00000000
Si      18.40519500       2.25521000      13.29418500  F      630       0.00000000       0.00000000       0.00000000
Si      15.68482750       4.97503250      13.29227750  F      631       0.00000000       0.00000000       0.00000000
Si      19.76742250       0.89325500       9.20396000  F      632       0.00000000       0.00000000       0.00000000
Si      22.49378500       3.61662000       9.20368750  F      633       0.00000000       0.00000000       0.00000000
Si      19.77505250       3.60844500      11.92923250  F      634       0.00000000       0.00000000       0.00000000
Si      22.49215000       0.89434500      11.93223000  F      635       0.00000000       0.00000000       0.00000000
Si      21.13319250       2.25166750      10.56482500  F      636       0.00000000       0.00000000       0.00000000
Si      23.85873750       4.97721250      10.56482500  F      637       0.00000000       0.00000000       0.00000000
Si      23.85683000       2.25384750      13.29445750  F      638       0.00000000       0.00000000       0.00000000
Si      21.14899750       4.96140750      13.28982500  F      639       0.00000000       0.00000000       0.00000000
Si      25.21715000       6.34325500       9.20396000  F      640       0.00000000       0.00000000       0.00000000
Si       0.68397500       9.07152500       9.20559500  F      641       0.00000000       0.00000000       0.00000000
Si      25.21497000       9.07070750      11.93195750  F      642       0.00000000       0.00000000       0.00000000
Si       0.68397500       6.34570750      11.93223000  F      643       0.00000000       0.00000000       0.00000000
Si      26.57447250       7.70793500      10.56836750  F      644       0.00000000       0.00000000       0.00000000
Si       2.04320500      10.43511500      10.56864000  F      645       0.00000000       0.00000000       0.00000000
Si       2.04347750       7.70820750      13.29609250  F      646       0.00000000       0.00000000       0.00000000
Si      26.57365500      10.43593250      13.29609250  F      647       0.00000000       0.00000000       0.00000000
Si       3.40407000       6.34434500       9.20396000  F      648       0.00000000       0.00000000       0.00000000
Si       6.12307500       9.06798250       9.20041750  F      649       0.00000000       0.00000000       0.00000000
Si       3.40298000       9.07043500      11.93059500  F      650       0.00000000       0.00000000       0.00000000
Si       6.11490000       6.32908500      11.92596250  F      651       0.00000000       0.00000000       0.00000000
Si       4.76302750       7.70548250      10.56646000  F      652       0.00000000       0.00000000       0.00000000
Si       7.48012500      10.43266250      10.55937500  F      653       0.00000000       0.00000000       0.00000000
Si       7.46541000       7.68095750      13.29636500  F      654       0.00000000       0.00000000       0.00000000
Si       4.76193750      10.43293500      13.29418500  F      655       0.00000000       0.00000000       0.00000000
Si       8.85325250       6.33535250       9.19796500  F      656       0.00000000       0.00000000       0.00000000
Si      11.58506500       9.02029500       9.15763500  F      657       0.00000000       0.00000000       0.00000000
Si       8.81047000       9.02901500      11.91588000  F      658       0.00000000       0.00000000       0.00000000
Si      11.58179500       6.32036500      11.90743250  F      659       0.00000000       0.00000000       0.00000000
Si      10.21602500       7.69431000      10.55583250  F      660       0.00000000       0.00000000       0.00000000
Si      13.03271442      10.30312556      10.45176744  T      661      -0.00481379       0.00349014       0.01658418
Si      12.96200750       7.66242750      13.25658000  F      662       0.00000000       0.00000000       0.00000000
Si      10.19936204      10.39217220      13.28949045  T      663      -0.05471663       0.03515315       0.00218919
Si      14.31905750       6.31191750       9.17507500  F      664       0.00000000       0.00000000       0.00000000
Si      17.06122500       9.04918000       9.18216000  F      665       0.00000000       0.00000000       0.00000000
Si      14.36006142       8.98611979      11.88531055  T      666       0.00476222       0.00898015      -0.00225306
Si      17.06258750       6.31682250      11.91996750  F      667       0.00000000       0.00000000       0.00000000
Si      15.70526500       7.65289000      10.52558500  F      668       0.00000000       0.00000000       0.00000000
Si      18.45778750      10.40541250      10.52558500  F      669       0.00000000       0.00000000       0.00000000
Si      18.46187500       7.64853000      13.27974250  F      670       0.00000000       0.00000000       0.00000000
Si      15.84143319      10.26091001      13.20405224  T      671       0.00309819       0.04509261       0.00482360
Si      19.77641500       6.33399000       9.19769250  F      672       0.00000000       0.00000000       0.00000000
Si      22.50223250       9.06498500       9.19796500  F      673       0.00000000       0.00000000       0.00000000
Si      19.79358250       9.04781750      11.91996750  F      674       0.00000000       0.00000000       0.00000000
Si      22.50196000       6.33535250      11.92923250  F      675       0.00000000       0.00000000       0.00000000
Si      21.14790750       7.69267500      10.55719500  F      676       0.00000000       0.00000000       0.00000000
Si      23.85519500      10.43211750      10.56646000  F      677       0.00000000       0.00000000       0.00000000
Si      23.85546750       7.70521000      13.29418500  F      678       0.00000000       0.00000000       0.00000000
Si      21.13537250      10.42557750      13.29227750  F      679       0.00000000       0.00000000       0.00000000
Si      25.21469750      11.79816000       9.20505000  F      680       0.00000000       0.00000000       0.00000000
Si       0.68397500      14.52615750       9.20695750  F      681       0.00000000       0.00000000       0.00000000
Si      25.21224500      14.52561250      11.93250250  F      682       0.00000000       0.00000000       0.00000000
Si       0.68506500      11.79979500      11.93359250  F      683       0.00000000       0.00000000       0.00000000
Si      26.57365500      13.16229500      10.57000250  F      684       0.00000000       0.00000000       0.00000000
Si       2.04347750      15.89111000      10.57000250  F      685       0.00000000       0.00000000       0.00000000
Si       2.04565750      13.16420250      13.29772750  F      686       0.00000000       0.00000000       0.00000000
Si      26.57202000      15.88947500      13.29691000  F      687       0.00000000       0.00000000       0.00000000
Si       3.40161750      11.79734250       9.20287000  F      688       0.00000000       0.00000000       0.00000000
Si       6.10999500      14.52752000       9.18870000  F      689       0.00000000       0.00000000       0.00000000
Si       3.40516000      14.52915500      11.93413750  F      690       0.00000000       0.00000000       0.00000000
Si       6.11708000      11.79816000      11.92405500  F      691       0.00000000       0.00000000       0.00000000
Si       4.75866750      13.16447500      10.56291750  F      692       0.00000000       0.00000000       0.00000000
Si      11.55674625      17.28732936      11.90660572  T      693      -0.02038407      -0.00115247      -0.03148997
Si       7.46650000      13.16611000      13.28546500  F      694       0.00000000       0.00000000       0.00000000
Si       4.76248250      15.89737750      13.29909000  F      695       0.00000000       0.00000000       0.00000000
Si       8.82246000      11.79325500       9.16908000  F      696       0.00000000       0.00000000       0.00000000
Si      10.20812250      18.65044500      10.54384250  F      697       0.00000000       0.00000000       0.00000000
Si      10.95114589      13.50091038      13.01858183  T      698      -0.08954795       0.11016497      -0.08285879
Si      11.58858545      11.54667810      11.75820592  T      699       0.02753998      -0.04230514       0.07069196
Si      10.20564823      13.14073979      10.52146950  T      700      -0.02079044      -0.06446651       0.01875917
Si      12.96726078      15.89975102      10.53762479  T      701       0.00941921      -0.04453251      -0.00988928
Si      13.29625545      12.78815378      13.00708341  T      702      -0.12812058       0.05415115      -0.00831714
Si      10.03960806      16.07420333      13.27679111  T      703      -0.01536563       0.10176552      -0.01586712
Si      14.34879818      11.76435010       9.15094641  T      704      -0.00187163       0.00148768       0.00848805
Si      17.10278196      14.53478470       9.14576145  T      705      -0.00314659      -0.00215431       0.00076014
Si      14.53391900      14.49945053      11.74452377  T      706       0.06717400       0.14303103      -0.02699677
Si      17.11735153      11.74919329      11.88810320  T      707      -0.00199553       0.00661352      -0.00134276
Si      15.81574748      13.08193799      10.44297220  T      708      -0.00858770       0.01525454       0.00845100
Si      18.41609500      15.89465250      10.55583250  F      709       0.00000000       0.00000000       0.00000000
Si      18.41562764      13.15751785      13.27451963  T      710       0.00409381      -0.00005219       0.00568973
Si      15.67474079      15.88383270      13.29539010  T      711       0.00714116       0.06092337       0.02555988
Si      19.79848750      11.79134750       9.17507500  F      712       0.00000000       0.00000000       0.00000000
Si      22.50032500      14.52779250       9.19660250  F      713       0.00000000       0.00000000       0.00000000
Si      19.79004000      14.52861000      11.90743250  F      714       0.00000000       0.00000000       0.00000000
Si      22.49351250      11.79461750      11.92868750  F      715       0.00000000       0.00000000       0.00000000
Si      21.14518250      13.15766250      10.55147250  F      716       0.00000000       0.00000000       0.00000000
Si      23.85492250      15.89002000      10.56673250  F      717       0.00000000       0.00000000       0.00000000
Si      23.85029000      13.16093250      13.29445750  F      718       0.00000000       0.00000000       0.00000000
Si      21.13455500      15.89220000      13.28900750  F      719       0.00000000       0.00000000       0.00000000
Si      25.21415250      17.25388250       9.20532250  F      720       0.00000000       0.00000000       0.00000000
Si       0.68097750      19.98024500       9.20532250  F      721       0.00000000       0.00000000       0.00000000
Si      25.21224500      19.97970000      11.93250250  F      722       0.00000000       0.00000000       0.00000000
Si       0.68234000      17.25388250      11.93359250  F      723       0.00000000       0.00000000       0.00000000
Si      26.57283750      18.61665500      10.56945750  F      724       0.00000000       0.00000000       0.00000000
Si       2.03966250      21.34519750      10.56700500  F      725       0.00000000       0.00000000       0.00000000
Si       2.04102500      18.61965250      13.29636500  F      726       0.00000000       0.00000000       0.00000000
Si      26.57147500      21.34274500      13.29636500  F      727       0.00000000       0.00000000       0.00000000
Si       3.39862000      17.25606250       9.20232500  F      728       0.00000000       0.00000000       0.00000000
Si       6.12770750      19.98269750       9.20423250  F      729       0.00000000       0.00000000       0.00000000
Si       3.39725750      19.98624000      11.93114000  F      730       0.00000000       0.00000000       0.00000000
Si       6.11135750      17.26750750      11.92732500  F      731       0.00000000       0.00000000       0.00000000
Si       4.75512500      18.62428500      10.56319000  F      732       0.00000000       0.00000000       0.00000000
Si       7.48639250      21.35528000      10.56319000  F      733       0.00000000       0.00000000       0.00000000
Si       7.42181000      18.68886750      13.28301250  F      734       0.00000000       0.00000000       0.00000000
Si       4.74286250      21.36781500      13.29173250  F      735       0.00000000       0.00000000       0.00000000
Si       8.80575116      14.55796972      11.90823170  T      736      -0.05437437      -0.01167324       0.01220338
Si      11.58315750      20.00041000       9.18870000  F      737       0.00000000       0.00000000       0.00000000
Si       8.74343500      17.36697000      14.68666000  F      738       0.00000000       0.00000000       0.00000000
Si      13.62545703      14.05850607      15.17726838  T      739      -0.11420940      -0.12113333      -0.03283769
Si      12.62176688      15.12316286      13.08826136  T      740      -0.05066858       0.01349394       0.03449939
Si      12.94593000      21.35173750      10.56291750  F      741       0.00000000       0.00000000       0.00000000
Si      12.94395530      18.62284909      13.28803875  T      742      -0.01236591       0.00967886      -0.01682489
Si      10.21302750      21.34792250      13.29909000  F      743       0.00000000       0.00000000       0.00000000
Si      14.31939771      17.28196016       9.17813345  T      744      -0.00676841      -0.00004573       0.00156600
Si      17.04242250      19.98733000       9.20041750  F      745       0.00000000       0.00000000       0.00000000
Si      14.31224500      19.99332500      11.92405500  F      746       0.00000000       0.00000000       0.00000000
Si      17.04918200      17.26918412      11.93721570  T      747       0.00218314       0.00915696      -0.00078927
Si      15.67774250      18.63028000      10.55937500  F      748       0.00000000       0.00000000       0.00000000
Si      18.40519500      21.34737750      10.56646000  F      749       0.00000000       0.00000000       0.00000000
Si      18.42944750      18.64499500      13.29636500  F      750       0.00000000       0.00000000       0.00000000
Si      15.67747000      21.34874000      13.29418500  F      751       0.00000000       0.00000000       0.00000000
Si      19.77505250      17.25715250       9.19796500  F      752       0.00000000       0.00000000       0.00000000
Si      22.49269500      19.98106250       9.20341500  F      753       0.00000000       0.00000000       0.00000000
Si      19.78132000      19.99550500      11.92596250  F      754       0.00000000       0.00000000       0.00000000
Si      22.49460250      17.25551750      11.92841500  F      755       0.00000000       0.00000000       0.00000000
Si      21.13373750      18.62019750      10.56537000  F      756       0.00000000       0.00000000       0.00000000
Si      23.85192500      21.34247250      10.56891250  F      757       0.00000000       0.00000000       0.00000000
Si      23.85247000      18.61747250      13.29554750  F      758       0.00000000       0.00000000       0.00000000
Si      21.13591750      21.35092000      13.29691000  F      759       0.00000000       0.00000000       0.00000000
Si      25.21170000      22.70361000       9.20559500  F      760       0.00000000       0.00000000       0.00000000
Si       0.68424750      25.42615750       9.20614000  F      761       0.00000000       0.00000000       0.00000000
Si      25.21251750      25.42697500      11.93223000  F      762       0.00000000       0.00000000       0.00000000
Si       0.68070500      22.70579000      11.93277500  F      763       0.00000000       0.00000000       0.00000000
Si      26.57174750      24.06556500      10.56836750  F      764       0.00000000       0.00000000       0.00000000
Si       2.04484000      26.78865750      10.56836750  F      765       0.00000000       0.00000000       0.00000000
Si       2.03666500      24.07374000      13.29473000  F      766       0.00000000       0.00000000       0.00000000
Si      26.57202000      26.78838500      13.29582000  F      767       0.00000000       0.00000000       0.00000000
Si       3.40570500      22.70470000       9.20614000  F      768       0.00000000       0.00000000       0.00000000
Si       6.13016000      25.42942750       9.20532250  F      769       0.00000000       0.00000000       0.00000000
Si       3.40461500      25.42970000      11.93277500  F      770       0.00000000       0.00000000       0.00000000
Si       6.12416500      22.71314750      11.93114000  F      771       0.00000000       0.00000000       0.00000000
Si       4.76520750      24.07074250      10.56700500  F      772       0.00000000       0.00000000       0.00000000
Si       7.49375000      26.78756750      10.56945750  F      773       0.00000000       0.00000000       0.00000000
Si       7.49075250      24.06938000      13.29636500  F      774       0.00000000       0.00000000       0.00000000
Si       4.76766000      26.78893000      13.29636500  F      775       0.00000000       0.00000000       0.00000000
Si       8.85434250      22.71178500       9.20232500  F      776       0.00000000       0.00000000       0.00000000
Si      11.58424750      25.42643000       9.20695750  F      777       0.00000000       0.00000000       0.00000000
Si       8.85679500      25.42806500      11.93359250  F      778       0.00000000       0.00000000       0.00000000
Si      11.58125000      22.70524500      11.93413750  F      779       0.00000000       0.00000000       0.00000000
Si      10.21929500      24.06692750      10.57000250  F      780       0.00000000       0.00000000       0.00000000
Si      12.94811000      26.78675000      10.57000250  F      781       0.00000000       0.00000000       0.00000000
Si      12.94620250      24.06502000      13.29772750  F      782       0.00000000       0.00000000       0.00000000
Si      10.22093000      26.78838500      13.29691000  F      783       0.00000000       0.00000000       0.00000000
Si      14.31306250      22.70878750       9.20287000  F      784       0.00000000       0.00000000       0.00000000
Si      17.03915250      25.42643000       9.20559500  F      785       0.00000000       0.00000000       0.00000000
Si      14.31061000      25.42561250      11.93359250  F      786       0.00000000       0.00000000       0.00000000
Si      17.04024250      22.70742500      11.93059500  F      787       0.00000000       0.00000000       0.00000000
Si      15.67529000      24.06747250      10.56864000  F      788       0.00000000       0.00000000       0.00000000
Si      18.40247000      26.78593250      10.56836750  F      789       0.00000000       0.00000000       0.00000000
Si      18.40219750      24.06692750      13.29609250  F      790       0.00000000       0.00000000       0.00000000
Si      15.67447250      26.78675000      13.29609250  F      791       0.00000000       0.00000000       0.00000000
Si      19.76606000      22.70633500       9.20396000  F      792       0.00000000       0.00000000       0.00000000
Si      22.48942500      25.42506750       9.20532250  F      793       0.00000000       0.00000000       0.00000000
Si      19.76497000      25.42643000      11.93223000  F      794       0.00000000       0.00000000       0.00000000
Si      22.49351250      22.70824250      11.93114000  F      795       0.00000000       0.00000000       0.00000000
Si      21.12774250      24.06611000      10.56891250  F      796       0.00000000       0.00000000       0.00000000
Si      23.85192500      26.78538750      10.56809500  F      797       0.00000000       0.00000000       0.00000000
Si      23.85219750      24.06747250      13.29663750  F      798       0.00000000       0.00000000       0.00000000
Si      21.12747000      26.78647750      13.29582000  F      799       0.00000000       0.00000000       0.00000000
Si      25.21360750       0.89679750      14.66104500  F      800       0.00000000       0.00000000       0.00000000
Si       0.68234000       3.62016250      14.65995500  F      801       0.00000000       0.00000000       0.00000000
Si      25.21306250       3.62152500      17.38822500  F      802       0.00000000       0.00000000       0.00000000
Si       0.68234000       0.90088500      17.38822500  F      803       0.00000000       0.00000000       0.00000000
Si      26.57229250       2.26011500      16.02409000  F      804       0.00000000       0.00000000       0.00000000
Si       2.04075250       4.98130000      16.02463500  F      805       0.00000000       0.00000000       0.00000000
Si       2.04375000       2.26175000      18.75099750  F      806       0.00000000       0.00000000       0.00000000
Si      26.57229250       4.98484250      18.75072500  F      807       0.00000000       0.00000000       0.00000000
Si       3.40516000       0.89843250      14.66022750  F      808       0.00000000       0.00000000       0.00000000
Si       6.12607250       3.61580250      14.65886500  F      809       0.00000000       0.00000000       0.00000000
Si       3.40461500       3.62098000      17.38713500  F      810       0.00000000       0.00000000       0.00000000
Si       6.13097750       0.89979500      17.38768000  F      811       0.00000000       0.00000000       0.00000000
Si       4.76629750       2.25793500      16.02436250  F      812       0.00000000       0.00000000       0.00000000
Si       7.48584750       4.97367000      16.02490750  F      813       0.00000000       0.00000000       0.00000000
Si       7.49375000       2.26038750      18.75099750  F      814       0.00000000       0.00000000       0.00000000
Si       4.76493500       4.98102750      18.75208750  F      815       0.00000000       0.00000000       0.00000000
Si       8.85788500       0.89979500      14.65995500  F      816       0.00000000       0.00000000       0.00000000
Si      11.58533750       3.62207000      14.65750250  F      817       0.00000000       0.00000000       0.00000000
Si       8.85652250       3.61989000      17.38768000  F      818       0.00000000       0.00000000       0.00000000
Si      11.58424750       0.90034000      17.38604500  F      819       0.00000000       0.00000000       0.00000000
Si      10.22147500       2.26175000      16.02245500  F      820       0.00000000       0.00000000       0.00000000
Si      12.95056250       4.98239000      16.02163750  F      821       0.00000000       0.00000000       0.00000000
Si      12.94783750       2.26093250      18.74909000  F      822       0.00000000       0.00000000       0.00000000
Si      10.21956750       4.98021000      18.75317750  F      823       0.00000000       0.00000000       0.00000000
Si      14.31142750       0.89870500      14.65913750  F      824       0.00000000       0.00000000       0.00000000
Si      17.04405750       3.61553000      14.65886500  F      825       0.00000000       0.00000000       0.00000000
Si      14.31279000       3.62070750      17.38577250  F      826       0.00000000       0.00000000       0.00000000
Si      17.03751750       0.89816000      17.38631750  F      827       0.00000000       0.00000000       0.00000000
Si      15.67583500       2.25902500      16.02218250  F      828       0.00000000       0.00000000       0.00000000
Si      18.41200750       4.97121750      16.02381750  F      829       0.00000000       0.00000000       0.00000000
Si      18.40110750       2.25739000      18.75099750  F      830       0.00000000       0.00000000       0.00000000
Si      15.67665250       4.97775750      18.75345000  F      831       0.00000000       0.00000000       0.00000000
Si      19.76524250       0.89598000      14.65995500  F      832       0.00000000       0.00000000       0.00000000
Si      22.50059750       3.60980750      14.66213500  F      833       0.00000000       0.00000000       0.00000000
Si      19.76851250       3.61471250      17.38986000  F      834       0.00000000       0.00000000       0.00000000
Si      22.48915250       0.89734250      17.38822500  F      835       0.00000000       0.00000000       0.00000000
Si      21.12937750       2.25575500      16.02381750  F      836       0.00000000       0.00000000       0.00000000
Si      23.85465000       4.98102750      16.02381750  F      837       0.00000000       0.00000000       0.00000000
Si      23.84920000       2.26120500      18.75018000  F      838       0.00000000       0.00000000       0.00000000
Si      21.12747000       4.98293500      18.75072500  F      839       0.00000000       0.00000000       0.00000000
Si      25.21442500       6.34516250      14.65995500  F      840       0.00000000       0.00000000       0.00000000
Si       0.68479250       9.07343250      14.65995500  F      841       0.00000000       0.00000000       0.00000000
Si      25.21224500       9.07288750      17.38631750  F      842       0.00000000       0.00000000       0.00000000
Si       0.68234000       6.34652500      17.38713500  F      843       0.00000000       0.00000000       0.00000000
Si      26.57365500       7.71011500      16.02300000  F      844       0.00000000       0.00000000       0.00000000
Si       2.04511250      10.43702250      16.02409000  F      845       0.00000000       0.00000000       0.00000000
Si       2.04129750       7.70848000      18.75236000  F      846       0.00000000       0.00000000       0.00000000
Si      26.57202000      10.43675000      18.74936250  F      847       0.00000000       0.00000000       0.00000000
Si       3.39916500       6.33998500      14.65941000  F      848       0.00000000       0.00000000       0.00000000
Si       6.10672500       9.05299500      14.65832000  F      849       0.00000000       0.00000000       0.00000000
Si       3.40052750       9.07043500      17.39040500  F      850       0.00000000       0.00000000       0.00000000
Si       6.12443750       6.33944000      17.38822500  F      851       0.00000000       0.00000000       0.00000000
Si       4.75430750       7.69839750      16.02817750  F      852       0.00000000       0.00000000       0.00000000
Si       7.45015000      10.40841000      16.03826000  F      853       0.00000000       0.00000000       0.00000000
Si       7.48612000       7.70003250      18.75317750  F      854       0.00000000       0.00000000       0.00000000
Si       4.75730500      10.43320750      18.75917250  F      855       0.00000000       0.00000000       0.00000000
Si       8.84262500       6.32636000      14.65450500  F      856       0.00000000       0.00000000       0.00000000
Si      11.57874283       9.02152205      14.64560108  T      857      -0.00165822       0.02331966       0.02206403
Si       8.84153500       9.05136000      17.37896000  F      858       0.00000000       0.00000000       0.00000000
Si      11.58506500       6.33835000      17.39122250  F      859       0.00000000       0.00000000       0.00000000
Si      10.20512500       7.67469000      16.02436250  F      860       0.00000000       0.00000000       0.00000000
Si      13.00812367      10.34362914      16.02435643  T      861      -0.03360551       0.09636661       0.11663338
Si      12.94593000       7.69649000      18.76353250  F      862       0.00000000       0.00000000       0.00000000
Si      10.17106250      10.38443000      18.79596000  F      863       0.00000000       0.00000000       0.00000000
Si      14.32232750       6.33726000      14.65695750  F      864       0.00000000       0.00000000       0.00000000
Si      17.12989500       8.98051000      14.66676750  F      865       0.00000000       0.00000000       0.00000000
Si      14.34552149       9.03317947      17.42466874  T      866       0.00012353      -0.00516921       0.01057543
Si      17.04896250       6.33017500      17.39149500  F      867       0.00000000       0.00000000       0.00000000
Si      15.69327500       7.68858750      16.02981250  F      868       0.00000000       0.00000000       0.00000000
Si      18.42181750      10.41713000      16.02981250  F      869       0.00000000       0.00000000       0.00000000
Si      18.40437750       7.70602750      18.75181500  F      870       0.00000000       0.00000000       0.00000000
Si      15.67147500      10.43893000      18.77279750  F      871       0.00000000       0.00000000       0.00000000
Si      19.80039500       6.31001000      14.66349750  F      872       0.00000000       0.00000000       0.00000000
Si      22.49514750       9.06634750      14.65886500  F      873       0.00000000       0.00000000       0.00000000
Si      19.78023000       9.06144250      17.39149500  F      874       0.00000000       0.00000000       0.00000000
Si      22.49569250       6.34189250      17.38986000  F      875       0.00000000       0.00000000       0.00000000
Si      21.13946000       7.69839750      16.02381750  F      876       0.00000000       0.00000000       0.00000000
Si      23.85138000      10.43457000      16.02218250  F      877       0.00000000       0.00000000       0.00000000
Si      23.85301500       7.70929750      18.75099750  F      878       0.00000000       0.00000000       0.00000000
Si      21.13264750      10.43375250      18.75345000  F      879       0.00000000       0.00000000       0.00000000
Si      25.21170000      11.79897750      14.65913750  F      880       0.00000000       0.00000000       0.00000000
Si       0.68370250      14.52724750      14.66104500  F      881       0.00000000       0.00000000       0.00000000
Si      25.21033750      14.52615750      17.38604500  F      882       0.00000000       0.00000000       0.00000000
Si       0.68315750      11.80034000      17.38686250  F      883       0.00000000       0.00000000       0.00000000
Si      26.57202000      13.16311250      16.02300000  F      884       0.00000000       0.00000000       0.00000000
Si       2.04238750      15.89220000      16.02572500  F      885       0.00000000       0.00000000       0.00000000
Si       2.04211500      13.16365750      18.75263250  F      886       0.00000000       0.00000000       0.00000000
Si      26.57011250      15.88974750      18.75018000  F      887       0.00000000       0.00000000       0.00000000
Si       3.40734000      11.80115750      14.66159000  F      888       0.00000000       0.00000000       0.00000000
Si       6.12443750      14.53705750      14.66622250  F      889       0.00000000       0.00000000       0.00000000
Si       3.40243500      14.53024500      17.39204000  F      890       0.00000000       0.00000000       0.00000000
Si       6.11490000      11.80034000      17.40348500  F      891       0.00000000       0.00000000       0.00000000
Si       4.76520750      13.16692750      16.02899500  F      892       0.00000000       0.00000000       0.00000000
Si       7.45151250      15.92735250      16.04779750  F      893       0.00000000       0.00000000       0.00000000
Si       7.43761500      13.16365750      18.80985750  F      894       0.00000000       0.00000000       0.00000000
Si       4.74885750      15.89874000      18.76707500  F      895       0.00000000       0.00000000       0.00000000
Si       8.81898672      11.78082671      14.65687259  T      896       0.04450336       0.02959625       0.03744711
Si      11.98560155      12.40803112      15.13186862  T      897      -0.10962361      -0.10457226      -0.09763562
Si       8.75406250      14.59591750      17.50512750  F      898       0.00000000       0.00000000       0.00000000
Si      11.56277697      11.77873472      17.49719028  T      899      -0.06038877      -0.01385843       0.05071249
Si       9.96677665      13.16135828      16.18911022  T      900       0.13167770       0.07195633       0.13222432
Si      12.88892527      16.13013801      16.18546069  T      901      -0.06043689      -0.07077544       0.01535352
Si      12.92506768      13.15439195      18.86836927  T      902       0.00448308       0.00415161      -0.00382726
Si      10.18959250      15.92081250      18.82212000  F      903       0.00000000       0.00000000       0.00000000
Si      14.53788330      11.54074573      14.60136750  T      904      -0.06439896      -0.09305067       0.06891955
Si      17.05241408      14.52228950      14.65442584  T      905       0.00609385      -0.00172920      -0.00373602
Si      14.28239091      14.52210651      17.49331191  T      906       0.00296509       0.03703954      -0.05396997
Si      17.06922066      11.76877443      17.41879834  T      907      -0.00785624      -0.00305339       0.00147975
Si      15.73304723      13.08552468      16.01328930  T      908      -0.03999231       0.00861888       0.04460130
Si      18.41098270      15.89303962      16.01881626  T      909       0.00134134       0.00050996       0.00333814
Si      18.41391500      13.16447500      18.76353250  F      910       0.00000000       0.00000000       0.00000000
Si      15.69287488      15.90532074      18.77588964  T      911      -0.00131086      -0.00547818       0.00489552
Si      19.77314500      11.78807750      14.65695750  F      912       0.00000000       0.00000000       0.00000000
Si      22.48860750      14.52506750      14.65750250  F      913       0.00000000       0.00000000       0.00000000
Si      19.77205500      14.52561250      17.39122250  F      914       0.00000000       0.00000000       0.00000000
Si      22.48969750      11.79761500      17.38577250  F      915       0.00000000       0.00000000       0.00000000
Si      21.12801500      13.15984250      16.02163750  F      916       0.00000000       0.00000000       0.00000000
Si      23.84892750      15.88893000      16.02245500  F      917       0.00000000       0.00000000       0.00000000
Si      23.84947250      13.16256750      18.74909000  F      918       0.00000000       0.00000000       0.00000000
Si      21.13046750      15.89083750      18.75317750  F      919       0.00000000       0.00000000       0.00000000
Si      25.21061000      17.25252000      14.65995500  F      920       0.00000000       0.00000000       0.00000000
Si       0.68043250      19.98106250      14.66104500  F      921       0.00000000       0.00000000       0.00000000
Si      25.21061000      19.97942750      17.38768000  F      922       0.00000000       0.00000000       0.00000000
Si       0.68070500      17.25470000      17.38877000  F      923       0.00000000       0.00000000       0.00000000
Si      26.57038500      18.61638250      16.02381750  F      924       0.00000000       0.00000000       0.00000000
Si       2.03557500      21.34928500      16.02545250  F      925       0.00000000       0.00000000       0.00000000
Si       2.03475750      18.62156000      18.75563000  F      926       0.00000000       0.00000000       0.00000000
Si      26.56847750      21.34356250      18.75181500  F      927       0.00000000       0.00000000       0.00000000
Si       3.40052750      17.25987750      14.66322500  F      928       0.00000000       0.00000000       0.00000000
Si       6.08656000      20.02384500      14.67085500  F      929       0.00000000       0.00000000       0.00000000
Si       3.39071750      19.99169000      17.39640000  F      930       0.00000000       0.00000000       0.00000000
Si       6.09637000      17.27813500      17.40621000  F      931       0.00000000       0.00000000       0.00000000
Si       4.74531500      18.63682000      16.03063000  F      932       0.00000000       0.00000000       0.00000000
Si       7.47385750      21.36509000      16.03063000  F      933       0.00000000       0.00000000       0.00000000
Si       7.47631000      18.63436750      18.76680250  F      934       0.00000000       0.00000000       0.00000000
Si       4.75921250      21.35119250      18.75672000  F      935       0.00000000       0.00000000       0.00000000
Si      11.17943011      14.87613514      15.02276088  T      936      -0.06170683       0.00809117      -0.10087031
Si      11.57334750      19.98596750      14.66622250  F      937       0.00000000       0.00000000       0.00000000
Si       8.83227000      20.01403500      17.40621000  F      938       0.00000000       0.00000000       0.00000000
Si      11.49714720      17.38703702      17.52161671  T      939      -0.00864681       0.00407440      -0.00217305
Si      10.18332500      18.65889250      16.04779750  F      940       0.00000000       0.00000000       0.00000000
Si      12.94347750      21.34519750      16.02899500  F      941       0.00000000       0.00000000       0.00000000
Si      12.94674750      18.67279000      18.80985750  F      942       0.00000000       0.00000000       0.00000000
Si      10.21166500      21.36154750      18.76707500  F      943       0.00000000       0.00000000       0.00000000
Si      14.29762977      17.26102244      14.66409257  T      944      -0.06422888      -0.00040518      -0.01874015
Si      17.05741000      20.00395250      14.65832000  F      945       0.00000000       0.00000000       0.00000000
Si      14.31006500      19.99550500      17.40348500  F      946       0.00000000       0.00000000       0.00000000
Si      17.04726566      17.26071784      17.38380508  T      947       0.00474705       0.00000754       0.00942795
Si      15.68159133      18.63109030      16.02175555  T      948      -0.00872477      -0.00806925      -0.00901634
Si      18.41228000      21.35609750      16.02817750  F      949       0.00000000       0.00000000       0.00000000
Si      18.41064500      18.62428500      18.75317750  F      950       0.00000000       0.00000000       0.00000000
Si      15.67719750      21.35310000      18.75917250  F      951       0.00000000       0.00000000       0.00000000
Si      19.78404500      17.26778000      14.65450500  F      952       0.00000000       0.00000000       0.00000000
Si      22.49460250      19.98433250      14.65886500  F      953       0.00000000       0.00000000       0.00000000
Si      19.77123750      19.98596750      17.38822500  F      954       0.00000000       0.00000000       0.00000000
Si      22.49051500      17.25388250      17.38768000  F      955       0.00000000       0.00000000       0.00000000
Si      21.13700750      18.62483000      16.02490750  F      956       0.00000000       0.00000000       0.00000000
Si      23.85247000      21.34438000      16.02436250  F      957       0.00000000       0.00000000       0.00000000
Si      23.85029000      18.61665500      18.75099750  F      958       0.00000000       0.00000000       0.00000000
Si      21.12937750      21.34547000      18.75208750  F      959       0.00000000       0.00000000       0.00000000
Si      25.21197250      22.70551750      14.66022750  F      960       0.00000000       0.00000000       0.00000000
Si       0.67961500      25.43079000      14.66159000  F      961       0.00000000       0.00000000       0.00000000
Si      25.20952000      25.42806500      17.38822500  F      962       0.00000000       0.00000000       0.00000000
Si       0.67770750      22.70824250      17.39013250  F      963       0.00000000       0.00000000       0.00000000
Si      26.56984000      24.06829000      16.02436250  F      964       0.00000000       0.00000000       0.00000000
Si       2.04211500      26.79056500      16.02436250  F      965       0.00000000       0.00000000       0.00000000
Si       2.04102500      24.06938000      18.75208750  F      966       0.00000000       0.00000000       0.00000000
Si      26.57065750      26.78974750      18.75072500  F      967       0.00000000       0.00000000       0.00000000
Si       3.39099000      22.71941500      14.66377000  F      968       0.00000000       0.00000000       0.00000000
Si       6.12934250      25.42997250      14.66104500  F      969       0.00000000       0.00000000       0.00000000
Si       3.40216250      25.43297000      17.39013250  F      970       0.00000000       0.00000000       0.00000000
Si       6.11871500      22.71968750      17.39640000  F      971       0.00000000       0.00000000       0.00000000
Si       4.76112000      24.07483000      16.02545250  F      972       0.00000000       0.00000000       0.00000000
Si       7.49402250      26.79002000      16.02381750  F      973       0.00000000       0.00000000       0.00000000
Si       7.48884500      24.07564750      18.75563000  F      974       0.00000000       0.00000000       0.00000000
Si       4.76684250      26.79220000      18.75181500  F      975       0.00000000       0.00000000       0.00000000
Si       8.85052750      22.70987750      14.66322500  F      976       0.00000000       0.00000000       0.00000000
Si      11.58315750      25.42697500      14.66104500  F      977       0.00000000       0.00000000       0.00000000
Si       8.85570500      25.42997250      17.38877000  F      978       0.00000000       0.00000000       0.00000000
Si      11.58016000      22.70797000      17.39204000  F      979       0.00000000       0.00000000       0.00000000
Si      10.21820500      24.06801750      16.02572500  F      980       0.00000000       0.00000000       0.00000000
Si      12.94729250      26.78838500      16.02300000  F      981       0.00000000       0.00000000       0.00000000
Si      12.94674750      24.06829000      18.75263250  F      982       0.00000000       0.00000000       0.00000000
Si      10.22065750      26.79029250      18.75018000  F      983       0.00000000       0.00000000       0.00000000
Si      14.30924750      22.70306500      14.66159000  F      984       0.00000000       0.00000000       0.00000000
Si      17.03697250      25.42561250      14.65995500  F      985       0.00000000       0.00000000       0.00000000
Si      14.31006500      25.42724750      17.38686250  F      986       0.00000000       0.00000000       0.00000000
Si      17.03997000      22.70987750      17.39040500  F      987       0.00000000       0.00000000       0.00000000
Si      15.67338250      24.06529250      16.02409000  F      988       0.00000000       0.00000000       0.00000000
Si      18.40029000      26.78702250      16.02300000  F      989       0.00000000       0.00000000       0.00000000
Si      18.40192500      24.06910750      18.75236000  F      990       0.00000000       0.00000000       0.00000000
Si      15.67365500      26.78838500      18.74936250  F      991       0.00000000       0.00000000       0.00000000
Si      19.77042000      22.71124000      14.65941000  F      992       0.00000000       0.00000000       0.00000000
Si      22.49024250      25.42806500      14.65995500  F      993       0.00000000       0.00000000       0.00000000
Si      19.76388000      25.42833750      17.38713500  F      994       0.00000000       0.00000000       0.00000000
Si      22.48942500      22.70579000      17.38713500  F      995       0.00000000       0.00000000       0.00000000
Si      21.12910500      24.06965250      16.02463500  F      996       0.00000000       0.00000000       0.00000000
Si      23.85029000      26.78838500      16.02409000  F      997       0.00000000       0.00000000       0.00000000
Si      23.84865500      24.06665500      18.75099750  F      998       0.00000000       0.00000000       0.00000000
Si      21.12556250      26.78811250      18.75072500  F      999       0.00000000       0.00000000       0.00000000
Si      11.58993122      14.52338633       9.18346004  T     1000      -0.00811458      -0.00858068       0.00696664
Si       8.85161750      17.25878750       9.19851000  F     1001       0.00000000       0.00000000       0.00000000
Si       8.84289750      19.99904750      11.92732500  F     1002       0.00000000       0.00000000       0.00000000
Si      11.58343000      17.25579000       6.47705250  F     1003       0.00000000       0.00000000       0.00000000
