5
Lattice="27.25 0.0 0.0 0.0 27.25 0.0 0.0 0.0 27.25" Properties=species:S:1:pos:R:3:forces:R:3 energy=-42.185220620153075 bias_energy=0 name=displace pbc="T T T"
Si      13.93354207      12.20906031      12.59482377      -0.07076143       0.13446370       0.07584863
Si      14.74795887      15.37133470      14.21492622       0.12525101      -0.22856590      -0.14855912
Si      13.24230688      14.51460723      12.66219337      -0.02072901       0.10430079      -0.00671917
Si      11.99932480      12.84531515      13.87362794      -0.05174818       0.10138928       0.03009344
Si      14.20186739      13.18468261      14.77942869       0.01798760      -0.11158786       0.04933622
5
Lattice="27.25 0.0 0.0 0.0 27.25 0.0 0.0 0.0 27.25" Properties=species:S:1:pos:R:3:forces:R:3 energy=-43.72141665363755 bias_energy=-43.705082820770905 name=displace pbc="T T T"
Si      13.36742600      12.69819419      12.57215473      -0.06308760       0.12127056       0.05332144
Si      15.49367281      13.63005838      13.16013064       0.14429733      -0.22184289      -0.14129406
Si      13.55624986      15.02888352      13.37586490      -0.04019822       0.09974598      -0.01326274
Si      11.75706691      13.61725428      14.08668726      -0.04717292       0.11109855       0.03616858
Si      13.95058441      13.15060963      14.93016248       0.00616141      -0.11027220       0.06506679
5
Lattice="27.25 0.0 0.0 0.0 27.25 0.0 0.0 0.0 27.25" Properties=species:S:1:pos:R:3:forces:R:3 energy=-43.72148082831331 bias_energy=0 name=displace pbc="T T T"
Si      13.36752728      12.69849347      12.57229419      -0.07076143       0.13446370       0.07584863
Si      15.49352269      13.63034336      13.16022338       0.12525101      -0.22856590      -0.14855912
Si      13.55667845      15.02825413      13.37570021      -0.02072901       0.10430079      -0.00671917
Si      11.75668692      13.61725588      14.08689035      -0.05174818       0.10138928       0.03009344
Si      13.95058466      13.15065317      14.92989188       0.01798760      -0.11158786       0.04933622
