5
Lattice="27.25 0.0 0.0 0.0 27.25 0.0 0.0 0.0 27.25" Properties=species:S:1:pos:R:3:forces:R:3 energy=-41.25033066760518 bias_energy=0 name=displace pbc="T T T"
Si      14.30384780      13.19851474      12.13051688      -0.02567121      -0.27292995       0.03100292
Si      13.54877753      14.64653060      15.71051445       0.11593077       0.14520545       0.10449282
Si      14.83959758      14.77454073      13.89282154      -0.20851354       0.09317213      -0.00066180
Si      12.61583826      11.80677282      12.59080998      -0.03264884       0.02826711      -0.12380804
Si      12.81693883      13.69864111      13.80033715       0.15090281       0.00628526      -0.01102589
5
Lattice="27.25 0.0 0.0 0.0 27.25 0.0 0.0 0.0 27.25" Properties=species:S:1:pos:R:3:forces:R:3 energy=-41.249102415050935 bias_energy=-41.04962311021458 name=displace pbc="T T T"
Si      14.30692460      13.11562074      12.16172017       0.01893010      -0.28659468       0.05542128
Si      13.57624272      14.70358011      15.67572874       0.11916810       0.14256752       0.08261585
Si      14.83792325      14.80278166      13.82800687      -0.18963617       0.13320029      -0.03745642
Si      12.58457672      11.78306190      12.66548608      -0.07600462       0.02213059      -0.11597624
Si      12.81933270      13.71995559      13.79405815       0.12754258      -0.01130373       0.01539553
5
Lattice="27.25 0.0 0.0 0.0 27.25 0.0 0.0 0.0 27.25" Properties=species:S:1:pos:R:3:forces:R:3 energy=-41.24971557199156 bias_energy=-40.85164769545112 name=displace pbc="T T T"
Si      14.29100901      13.04372096      12.18124119       0.01865565      -0.28667042       0.05555018
Si      13.60325794      14.80502884      15.62468750       0.11942202       0.14233551       0.08228375
Si      14.84853654      14.79450847      13.76572530      -0.18987813       0.13303233      -0.03723177
Si      12.55901331      11.75165554      12.75072169      -0.07581556       0.02249212      -0.11596281
Si      12.82318320      13.73008619      13.80262432       0.12761601      -0.01118954       0.01536065
5
Lattice="27.25 0.0 0.0 0.0 27.25 0.0 0.0 0.0 27.25" Properties=species:S:1:pos:R:3:forces:R:3 energy=-41.24899655347497 bias_energy=-40.655183262051814 name=displace pbc="T T T"
Si      14.27329953      12.94847641      12.21539249       0.01866866      -0.28654437       0.05571254
Si      13.64374439      14.91268403      15.55891196       0.11939681       0.14222171       0.08226118
Si      14.85683509      14.79089102      13.68410170      -0.18986423       0.13301066      -0.03738031
Si      12.52418666      11.72432249      12.86033262      -0.07591340       0.02240946      -0.11603422
Si      12.82693432      13.74862604      13.80626122       0.12771217      -0.01109746       0.01544081
5
Lattice="27.25 0.0 0.0 0.0 27.25 0.0 0.0 0.0 27.25" Properties=species:S:1:pos:R:3:forces:R:3 energy=-41.246341108429874 bias_energy=-40.464207015827306 name=displace pbc="T T T"
Si      14.24680717      12.82649686      12.27377456       0.01868020      -0.28652227       0.05569741
Si      13.70659399      15.05410437      15.46166393       0.11939514       0.14219711       0.08227671
Si      14.86679982      14.77780600      13.56929851      -0.18986461       0.13302091      -0.03736721
Si      12.47024316      11.69924290      12.99977196      -0.07593917       0.02240388      -0.11603841
Si      12.83455587      13.76734987      13.82049104       0.12772844      -0.01109963       0.01543150
5
Lattice="27.25 0.0 0.0 0.0 27.25 0.0 0.0 0.0 27.25" Properties=species:S:1:pos:R:3:forces:R:3 energy=-41.18991831620913 bias_energy=-40.36157941226274 name=displace pbc="T T T"
Si      13.95646600      12.11884527      12.89161883       0.01868826      -0.28650125       0.05568909
Si      14.26660365      15.69329841      14.49763161       0.11939396       0.14218442       0.08229042
Si      14.81589061      14.45609524      12.70720962      -0.18988590       0.13300546      -0.03736475
Si      12.16512275      11.88170556      14.17410682      -0.07593516       0.02241194      -0.11604801
Si      12.92091700      13.97505552      13.85443312       0.12773883      -0.01110058       0.01543325
5
Lattice="27.25 0.0 0.0 0.0 27.25 0.0 0.0 0.0 27.25" Properties=species:S:1:pos:R:3:forces:R:3 energy=-40.909329774874124 bias_energy=-40.433592197322234 name=displace pbc="T T T"
Si      13.50408008      12.18093884      12.53000227       0.01861508      -0.28651561       0.05560451
Si      14.99560147      15.38280421      14.44064097       0.11935636       0.14205165       0.08235054
Si      13.90249160      14.96604184      12.57373293      -0.18988420       0.13311361      -0.03731678
Si      11.89707294      12.16412952      14.09220956      -0.07586824       0.02242957      -0.11609176
Si      13.82575390      13.43108558      14.48841427       0.12778100      -0.01107921       0.01545349
5
Lattice="27.25 0.0 0.0 0.0 27.25 0.0 0.0 0.0 27.25" Properties=species:S:1:pos:R:3:forces:R:3 energy=-42.16918389866112 bias_energy=-41.65531939671616 name=displace pbc="T T T"
Si      13.92369790      12.16921363      12.60311368       0.01862910      -0.28667753       0.05564941
Si      14.76929491      15.40296280      14.22800435       0.11921924       0.14223058       0.08213974
Si      13.23459028      14.52124245      12.69065543      -0.18994496       0.13298914      -0.03678086
Si      11.98673147      12.83224872      13.84703913      -0.07573368       0.02251824      -0.11612733
Si      14.21068544      13.19933239      14.75618741       0.12783030      -0.01106043       0.01511904
5
Lattice="27.25 0.0 0.0 0.0 27.25 0.0 0.0 0.0 27.25" Properties=species:S:1:pos:R:3:forces:R:3 energy=-42.185220620153096 bias_energy=0 name=displace pbc="T T T"
Si      13.93354207      12.20906031      12.59482377      -0.02567121      -0.27292995       0.03100292
Si      14.74795887      15.37133470      14.21492622       0.11593077       0.14520545       0.10449282
Si      13.24230688      14.51460723      12.66219337      -0.20851354       0.09317213      -0.00066180
Si      11.99932480      12.84531515      13.87362794      -0.03264884       0.02826711      -0.12380804
Si      14.20186739      13.18468261      14.77942869       0.15090281       0.00628526      -0.01102589
