5
Lattice="27.25 0.0 0.0 0.0 27.25 0.0 0.0 0.0 27.25" Properties=species:S:1:pos:R:3:forces:R:3 energy=-43.721252403758584 bias_energy=0 name=displace pbc="T T T"
Si      13.33357267      13.81855346      12.24523428      -0.01142432      -0.10774317      -0.00384708
Si      12.45284250      12.09679933      13.65433295       0.06444326       0.02068240      -0.10254540
Si      14.71354828      12.79697298      14.02130527      -0.00314832      -0.08401239      -0.03951933
Si      14.80033627      15.15034327      13.58663485      -0.03992623       0.24867593       0.16299134
Si      12.82470027      14.26233095      14.61749265      -0.00994438      -0.07760277      -0.01707953
5
Lattice="27.25 0.0 0.0 0.0 27.25 0.0 0.0 0.0 27.25" Properties=species:S:1:pos:R:3:forces:R:3 energy=-43.7215302237594 bias_energy=-43.52673831101407 name=displace pbc="T T T"
Si      13.37344599      13.87725128      12.24510276       0.04406256      -0.05475007      -0.00820674
Si      12.54508292      12.03418578      13.52957452       0.06101312      -0.02220253      -0.12304035
Si      14.75084328      12.83959484      14.01261088       0.02525638      -0.02883905      -0.05259945
Si      14.70337890      15.21674021      13.71909371      -0.10455281       0.20663673       0.19070913
Si      12.75224890      14.15722789      14.61861812      -0.02577926      -0.10084508      -0.00686259
5
Lattice="27.25 0.0 0.0 0.0 27.25 0.0 0.0 0.0 27.25" Properties=species:S:1:pos:R:3:forces:R:3 energy=-43.7215302237594 bias_energy=0 name=displace pbc="T T T"
Si      13.37344599      13.87725128      12.24510276      -0.01142432      -0.10774317      -0.00384708
Si      12.54508292      12.03418578      13.52957452       0.06444326       0.02068240      -0.10254540
Si      14.75084328      12.83959484      14.01261088      -0.00314832      -0.08401239      -0.03951933
Si      14.70337890      15.21674021      13.71909371      -0.03992623       0.24867593       0.16299134
Si      12.75224890      14.15722789      14.61861812      -0.00994438      -0.07760277      -0.01707953
