5
Lattice="27.25 0.0 0.0 0.0 27.25 0.0 0.0 0.0 27.25" Properties=species:S:1:pos:R:3:forces:R:3 energy=-41.250067446570256 bias_energy=0 name=displace pbc="T T T"
Si      14.45837619      13.12279617      12.23535022       0.07353083       0.07967763      -0.12498895
Si      13.37296496      14.63142442      15.70324362       0.02077937      -0.05687251       0.00089263
Si      14.89873654      14.65563612      14.06966147       0.11197222       0.15928384       0.10970326
Si      12.58299396      11.92785072      12.42912502      -0.18745693      -0.22480354       0.06575155
Si      12.81192835      13.78729258      13.68761968      -0.01882549       0.04271458      -0.05135848
5
Lattice="27.25 0.0 0.0 0.0 27.25 0.0 0.0 0.0 27.25" Properties=species:S:1:pos:R:3:forces:R:3 energy=-41.25030718926406 bias_energy=-41.05055868010507 name=displace pbc="T T T"
Si      14.39958140      13.17303954      12.18813095      -0.02037348       0.07391446      -0.18195589
Si      13.43926498      14.62561105      15.71501140       0.02379082      -0.10964239      -0.00282308
Si      14.88149044      14.69165051      14.01024122       0.10546461       0.18916417       0.10788015
Si      12.59654553      11.88634590      12.47867296      -0.13144732      -0.21057839       0.16845873
Si      12.80811765      13.74835300      13.73294347       0.02256537       0.05714215      -0.09155990
5
Lattice="27.25 0.0 0.0 0.0 27.25 0.0 0.0 0.0 27.25" Properties=species:S:1:pos:R:3:forces:R:3 energy=-41.25030718926406 bias_energy=0 name=displace pbc="T T T"
Si      14.39958140      13.17303954      12.18813095       0.07353083       0.07967763      -0.12498895
Si      13.43926498      14.62561105      15.71501140       0.02077937      -0.05687251       0.00089263
Si      14.88149044      14.69165051      14.01024122       0.11197222       0.15928384       0.10970326
Si      12.59654553      11.88634590      12.47867296      -0.18745693      -0.22480354       0.06575155
Si      12.80811765      13.74835300      13.73294347      -0.01882549       0.04271458      -0.05135848
