5
Lattice="27.25 0.0 0.0 0.0 27.25 0.0 0.0 0.0 27.25" Properties=species:S:1:pos:R:3:forces:R:3 energy=-41.25030718926406 bias_energy=0 name=displace pbc="T T T"
Si      14.39958140      13.17303954      12.18813095      -0.00184255       0.13910254      -0.11737218
Si      13.43926498      14.62561105      15.71501140       0.08046933       0.01554842      -0.24932156
Si      14.88149044      14.69165051      14.01024122       0.01367449       0.06189704       0.15578816
Si      12.59654553      11.88634590      12.47867296      -0.12010860      -0.19078846       0.06217490
Si      12.80811765      13.74835300      13.73294347       0.02780733      -0.02575955       0.14873068
5
Lattice="27.25 0.0 0.0 0.0 27.25 0.0 0.0 0.0 27.25" Properties=species:S:1:pos:R:3:forces:R:3 energy=-41.25033066760519 bias_energy=-41.05249574865546 name=displace pbc="T T T"
Si      14.30384780      13.19851474      12.13051688      -0.11124745       0.16790490      -0.18628287
Si      13.54877753      14.64653060      15.71051445       0.07200489       0.07101906      -0.17931372
Si      14.83959758      14.77454073      13.89282154       0.05005010       0.04189447       0.10079668
Si      12.61583826      11.80677282      12.59080998      -0.05327681      -0.18085366       0.14393972
Si      12.81693883      13.69864111      13.80033715       0.04246927      -0.09996477       0.12086020
5
Lattice="27.25 0.0 0.0 0.0 27.25 0.0 0.0 0.0 27.25" Properties=species:S:1:pos:R:3:forces:R:3 energy=-41.25033066760519 bias_energy=0 name=displace pbc="T T T"
Si      14.30384780      13.19851474      12.13051688      -0.00184255       0.13910254      -0.11737218
Si      13.54877753      14.64653060      15.71051445       0.08046933       0.01554842      -0.24932156
Si      14.83959758      14.77454073      13.89282154       0.01367449       0.06189704       0.15578816
Si      12.61583826      11.80677282      12.59080998      -0.12010860      -0.19078846       0.06217490
Si      12.81693883      13.69864111      13.80033715       0.02780733      -0.02575955       0.14873068
