5
Lattice="27.25 0.0 0.0 0.0 27.25 0.0 0.0 0.0 27.25" Properties=species:S:1:pos:R:3:forces:R:3 energy=-40.82650589674934 bias_energy=0 name=displace pbc="T T T"
Si      11.88427130      14.79571637      14.33020610      -0.01502507      -0.16772215      -0.10030598
Si      15.36497387      12.58934711      12.75084021       0.11432680       0.26490056       0.08220142
Si      15.69259619      14.25358696      14.07697144       0.00504058      -0.05552955      -0.22287360
Si      11.58278877      13.18330928      12.93579038      -0.05648503      -0.04909004       0.14728224
Si      13.60036987      13.30304029      14.03119187      -0.04785728       0.00744117       0.09369591
5
Lattice="27.25 0.0 0.0 0.0 27.25 0.0 0.0 0.0 27.25" Properties=species:S:1:pos:R:3:forces:R:3 energy=-40.826110919877706 bias_energy=-40.63870315876548 name=displace pbc="T T T"
Si      11.84065264      14.70656458      14.31268119      -0.03935805      -0.15189741      -0.06339132
Si      15.41363052      12.72150267      12.69710362       0.10485289       0.24052231       0.00527255
Si      15.65070994      14.44024171      13.96794566       0.00826570       0.09688501      -0.19810699
Si      11.57456769      12.94011554      13.11496613      -0.07450550      -0.18901576       0.18030389
Si      13.64543922      13.31657549      14.03230340       0.00074495       0.00350585       0.07592186
5
Lattice="27.25 0.0 0.0 0.0 27.25 0.0 0.0 0.0 27.25" Properties=species:S:1:pos:R:3:forces:R:3 energy=-40.824327523472164 bias_energy=-40.820356511498595 name=displace pbc="T T T"
Si      11.60462032      13.02765363      14.29625903      -0.03937833      -0.15207385      -0.06385671
Si      15.54318530      14.00492840      12.64716311       0.10486528       0.24034023       0.00552673
Si      13.97550940      15.45813170      12.40081986       0.00785753       0.09685336      -0.19818443
Si      13.27773991      11.74287784      14.72554697      -0.07396684      -0.18871457       0.18077242
Si      13.72394507      13.89140843      14.05521104       0.00062235       0.00359484       0.07574198
5
Lattice="27.25 0.0 0.0 0.0 27.25 0.0 0.0 0.0 27.25" Properties=species:S:1:pos:R:3:forces:R:3 energy=-40.82457777843685 bias_energy=-40.626407847373315 name=displace pbc="T T T"
Si      11.62386911      12.92728534      14.16437023      -0.03304786      -0.16082518      -0.07584953
Si      15.59872611      14.16985702      12.76284184       0.10934908       0.25438773       0.02636626
Si      13.87468094      15.38751509      12.33120710       0.00050591       0.06836408      -0.20356400
Si      13.30878834      11.75482364      14.80760928      -0.07136171      -0.16346262       0.18144195
Si      13.71893551      13.88551892      14.05897155      -0.00544542       0.00153599       0.07160533
5
Lattice="27.25 0.0 0.0 0.0 27.25 0.0 0.0 0.0 27.25" Properties=species:S:1:pos:R:3:forces:R:3 energy=-40.82036548738674 bias_energy=-40.655173625723926 name=displace pbc="T T T"
Si      13.23625878      11.53231468      13.32133382      -0.03179470      -0.16203380      -0.07677728
Si      14.33661707      15.75301135      13.84962353       0.10863173       0.25621513       0.02834100
Si      14.25636574      14.78919791      11.91843245       0.00095032       0.06491140      -0.20398348
Si      13.16224005      12.24501204      15.35924244      -0.07147760      -0.16077607       0.18114904
Si      13.13351836      13.80546402      13.67636775      -0.00630975       0.00168334       0.07127072
5
Lattice="27.25 0.0 0.0 0.0 27.25 0.0 0.0 0.0 27.25" Properties=species:S:1:pos:R:3:forces:R:3 energy=-40.81807842382961 bias_energy=-40.456179312357 name=displace pbc="T T T"
Si      13.23918406      11.55243686      13.30489768      -0.03244283      -0.16168304      -0.07586537
Si      14.38086700      15.74792905      13.83586087       0.10934993       0.25565672       0.02684426
Si      14.20525488      14.77858642      11.91252825       0.00052985       0.06608821      -0.20353796
Si      13.16307924      12.22275074      15.35458772      -0.07159593      -0.16191044       0.18056418
Si      13.13661481      13.82329693      13.71712547      -0.00584102       0.00184856       0.07199489
5
Lattice="27.25 0.0 0.0 0.0 27.25 0.0 0.0 0.0 27.25" Properties=species:S:1:pos:R:3:forces:R:3 energy=-40.81807102352222 bias_energy=-40.25829927552334 name=displace pbc="T T T"
Si      13.24011236      11.57705591      13.28778491      -0.03243653      -0.16165574      -0.07578273
Si      14.41815155      15.74239630      13.82231592       0.10931629       0.25582380       0.02672453
Si      14.15982590      14.76705231      11.91065621       0.00060459       0.06608011      -0.20342300
Si      13.16627136      12.20129158      15.35315801      -0.07165935      -0.16207874       0.18057499
Si      13.14063883      13.83720390      13.75108495      -0.00582500       0.00183056       0.07190621
5
Lattice="27.25 0.0 0.0 0.0 27.25 0.0 0.0 0.0 27.25" Properties=species:S:1:pos:R:3:forces:R:3 energy=-40.81697693164446 bias_energy=-40.05683542325199 name=displace pbc="T T T"
Si      13.23445284      11.52256022      13.32818166      -0.03244617      -0.16170737      -0.07575799
Si      14.45595311      15.69660399      13.85325142       0.10926341       0.25585540       0.02674419
Si      14.12050895      14.85657164      11.89243658       0.00066522       0.06610841      -0.20342424
Si      13.16881892      12.24089908      15.36101615      -0.07167143      -0.16206234       0.18059543
Si      13.14526619      13.80836506      13.69011420      -0.00581101       0.00180589       0.07184261
5
Lattice="27.25 0.0 0.0 0.0 27.25 0.0 0.0 0.0 27.25" Properties=species:S:1:pos:R:3:forces:R:3 energy=-40.813695650619195 bias_energy=-39.85576162964205 name=displace pbc="T T T"
Si      13.23641304      11.55285780      13.30729926      -0.03242465      -0.16170356      -0.07586804
Si      14.47873192      15.69935623      13.83273051       0.10915316       0.25582651       0.02679334
Si      14.08819510      14.83368449      11.89269684       0.00073460       0.06595310      -0.20347138
Si      13.17070643      12.21339614      15.35874820      -0.07162264      -0.16194143       0.18056468
Si      13.15095351      13.82570534      13.73352519      -0.00584047       0.00186538       0.07198139
5
Lattice="27.25 0.0 0.0 0.0 27.25 0.0 0.0 0.0 27.25" Properties=species:S:1:pos:R:3:forces:R:3 energy=-40.812438471995165 bias_energy=-39.65651892548701 name=displace pbc="T T T"
Si      13.23499113      11.57904492      13.28763330      -0.03242049      -0.16166895      -0.07578513
Si      14.49963516      15.70447401      13.81574281       0.10915797       0.25595216       0.02669990
Si      14.05963378      14.81258874      11.89579484       0.00077759       0.06597499      -0.20338585
Si      13.17570251      12.18968656      15.35753047      -0.07168830      -0.16209582       0.18059384
Si      13.15503742      13.83920577      13.76829858      -0.00582676       0.00183761       0.07187724
5
Lattice="27.25 0.0 0.0 0.0 27.25 0.0 0.0 0.0 27.25" Properties=species:S:1:pos:R:3:forces:R:3 energy=-40.808869266451055 bias_energy=-39.453744723036706 name=displace pbc="T T T"
Si      13.23710653      11.54419383      13.31514103      -0.03242765      -0.16171679      -0.07576311
Si      14.53042465      15.67175384      13.82999282       0.10913691       0.25596186       0.02673942
Si      14.02441267      14.87784072      11.88168926       0.00080764       0.06601612      -0.20340240
Si      13.17299206      12.21155023      15.36611403      -0.07169641      -0.16206717       0.18061334
Si      13.16006409      13.81966137      13.73206286      -0.00582049       0.00180597       0.07181275
5
Lattice="27.25 0.0 0.0 0.0 27.25 0.0 0.0 0.0 27.25" Properties=species:S:1:pos:R:3:forces:R:3 energy=-40.80798225712674 bias_energy=-39.25375163136703 name=displace pbc="T T T"
Si      13.23651683      11.57393171      13.29264038      -0.03241042      -0.16164725      -0.07579730
Si      14.54145361      15.68107141      13.81122083       0.10908258       0.25601879       0.02671611
Si      14.00502797      14.84605817      11.88903626       0.00086330       0.06588780      -0.20339313
Si      13.17929024      12.18779103      15.36197315      -0.07169384      -0.16209251       0.18059821
Si      13.16271136      13.83614767      13.77012938      -0.00584162       0.00183317       0.07187611
5
Lattice="27.25 0.0 0.0 0.0 27.25 0.0 0.0 0.0 27.25" Properties=species:S:1:pos:R:3:forces:R:3 energy=-41.250322188242855 bias_energy=-39.476195628783714 name=displace pbc="T T T"
Si      13.29940881      12.09395062      12.98325002      -0.03241980      -0.16170466      -0.07577202
Si      14.38309015      15.82037098      13.59851075       0.10907364       0.25601645       0.02674512
Si      13.93597459      14.24235174      12.08158699       0.00087885       0.06595005      -0.20340027
Si      13.28372205      11.96678244      15.21459044      -0.07170328      -0.16207105       0.18061880
Si      13.22280441      14.00154423      14.24706180      -0.00582941       0.00180921       0.07180838
5
Lattice="27.25 0.0 0.0 0.0 27.25 0.0 0.0 0.0 27.25" Properties=species:S:1:pos:R:3:forces:R:3 energy=-41.250322188242855 bias_energy=0 name=displace pbc="T T T"
Si      13.29940881      12.09395062      12.98325002      -0.01502507      -0.16772215      -0.10030598
Si      14.38309015      15.82037098      13.59851075       0.11432680       0.26490056       0.08220142
Si      13.93597459      14.24235174      12.08158699       0.00504058      -0.05552955      -0.22287360
Si      13.28372205      11.96678244      15.21459044      -0.05648503      -0.04909004       0.14728224
Si      13.22280441      14.00154423      14.24706180      -0.04785728       0.00744117       0.09369591
