5
Lattice="27.25 0.0 0.0 0.0 27.25 0.0 0.0 0.0 27.25" Properties=species:S:1:pos:R:3:forces:R:3 energy=-43.721530223759416 bias_energy=0 name=displace pbc="T T T"
Si      13.37344599      13.87725128      12.24510276       0.05709813       0.07058532      -0.06977582
Si      12.54508292      12.03418578      13.52957452       0.07962899       0.11271654       0.08543787
Si      14.75084328      12.83959484      14.01261088       0.00338480       0.00942943      -0.06322429
Si      14.70337890      15.21674021      13.71909371      -0.20002855      -0.20046616       0.09900454
Si      12.75224890      14.15722789      14.61861812       0.05991662       0.00773488      -0.05144230
5
Lattice="27.25 0.0 0.0 0.0 27.25 0.0 0.0 0.0 27.25" Properties=species:S:1:pos:R:3:forces:R:3 energy=-43.72143044267147 bias_energy=-43.521599372180575 name=displace pbc="T T T"
Si      13.37867680      13.93030646      12.25357842       0.07217042       0.07089306      -0.09671908
Si      12.56975933      12.02291081      13.45928290       0.07223102       0.10742309       0.08710909
Si      14.75567150      12.83837635      13.99006327       0.04223746      -0.02768673      -0.12758058
Si      14.68599202      15.22467264      13.79295834      -0.19231867      -0.14365394       0.17993631
Si      12.73490036      14.10873374      14.62911707       0.00567976      -0.00697548      -0.04274574
5
Lattice="27.25 0.0 0.0 0.0 27.25 0.0 0.0 0.0 27.25" Properties=species:S:1:pos:R:3:forces:R:3 energy=-43.72140782128576 bias_energy=-43.322485665224335 name=displace pbc="T T T"
Si      13.38962433      13.98497970      12.26458291       0.07261061       0.07124539      -0.09564886
Si      12.59414357      12.01758415      13.38073923       0.07146115       0.10627001       0.08581370
Si      14.76302539      12.83874651      13.96773239       0.04235781      -0.02626996      -0.12698271
Si      14.66099693      15.22981607      13.87376040      -0.19217725      -0.14399869       0.17981180
Si      12.71720979      14.05387357      14.63818507       0.00574768      -0.00724674      -0.04299393
5
Lattice="27.25 0.0 0.0 0.0 27.25 0.0 0.0 0.0 27.25" Properties=species:S:1:pos:R:3:forces:R:3 energy=-43.7212739364917 bias_energy=-43.12508641020919 name=displace pbc="T T T"
Si      13.40335072      14.04407548      12.27851111       0.07263602       0.07121201      -0.09556310
Si      12.62244708      12.01602559      13.29429197       0.07145852       0.10627509       0.08579875
Si      14.77115252      12.84045393      13.94464894       0.04231945      -0.02615421      -0.12694073
Si      14.63134970      15.23090792      13.96430456      -0.19219555      -0.14410005       0.17971101
Si      12.69669999      13.99353708      14.64324342       0.00578157      -0.00723284      -0.04300592
5
Lattice="27.25 0.0 0.0 0.0 27.25 0.0 0.0 0.0 27.25" Properties=species:S:1:pos:R:3:forces:R:3 energy=-43.72085231333477 bias_energy=-42.93127647170971 name=displace pbc="T T T"
Si      13.42051145      14.10906474      12.29655584       0.07263169       0.07120469      -0.09554096
Si      12.65613799      12.01970446      13.19744360       0.07147593       0.10629867       0.08580349
Si      14.78025852      12.84379040      13.92087800       0.04231423      -0.02614614      -0.12692205
Si      14.59540433      15.22627047      14.06694325      -0.19220555      -0.14413801       0.17966987
Si      12.67268771      13.92616993      14.64317931       0.00578370      -0.00721921      -0.04301035
5
Lattice="27.25 0.0 0.0 0.0 27.25 0.0 0.0 0.0 27.25" Properties=species:S:1:pos:R:3:forces:R:3 energy=-43.72143465046855 bias_energy=-43.70866416409991 name=displace pbc="T T T"
Si      13.19252613      14.91067881      14.06272104       0.07262502       0.07120059      -0.09553133
Si      14.40603709      14.42589604      12.05686195       0.07149126       0.10631997       0.08580985
Si      14.90526510      13.13177532      14.01282362       0.04231432      -0.02615088      -0.12690732
Si      12.84379422      12.82431636      15.19535072      -0.19221376      -0.14416238       0.17964152
Si      12.77737746      12.83233348      12.79724267       0.00578316      -0.00720729      -0.04301273
5
Lattice="27.25 0.0 0.0 0.0 27.25 0.0 0.0 0.0 27.25" Properties=species:S:1:pos:R:3:forces:R:3 energy=-43.72149834533583 bias_energy=-43.51030963637595 name=displace pbc="T T T"
Si      13.21062263      14.90459588      14.09873013       0.07331187       0.06833846      -0.09352449
Si      14.45267934      14.46114462      12.10025416       0.07608200       0.11231777       0.08787979
Si      14.88705383      13.09169513      14.01803736       0.03622584      -0.02760407      -0.12427476
Si      12.79682444      12.78977007      15.15112160      -0.19606519      -0.14808144       0.17213463
Si      12.77781977      12.87779430      12.75685675       0.01044547      -0.00497073      -0.04221517
5
Lattice="27.25 0.0 0.0 0.0 27.25 0.0 0.0 0.0 27.25" Properties=species:S:1:pos:R:3:forces:R:3 energy=-43.721464624492114 bias_energy=-43.31216799893208 name=displace pbc="T T T"
Si      13.22805564      14.89640910      14.13407140       0.07321491       0.06802012      -0.09362671
Si      14.49737582      14.49472199      12.14429251       0.07649446       0.11284331       0.08827100
Si      14.86854403      13.05240978      14.02151835       0.03566380      -0.02767917      -0.12443449
Si      12.75218778      12.75642780      15.10776527      -0.19620812      -0.14826319       0.17181502
Si      12.77883673      12.92503132      12.71735246       0.01083495      -0.00492107      -0.04202482
5
Lattice="27.25 0.0 0.0 0.0 27.25 0.0 0.0 0.0 27.25" Properties=species:S:1:pos:R:3:forces:R:3 energy=-43.721352672766464 bias_energy=-43.11451396960257 name=displace pbc="T T T"
Si      13.24476794      14.88649205      14.16935430       0.07314938       0.06785302      -0.09371921
Si      14.54036812      14.52671678      12.18941528       0.07671303       0.11311493       0.08851576
Si      14.84953137      13.01362421      14.02166592       0.03532692      -0.02769708      -0.12455527
Si      12.70918810      12.72511871      15.06383846      -0.19625540      -0.14836101       0.17167653
Si      12.78114447      12.97304826      12.68072604       0.01106607      -0.00490986      -0.04191782
5
Lattice="27.25 0.0 0.0 0.0 27.25 0.0 0.0 0.0 27.25" Properties=species:S:1:pos:R:3:forces:R:3 energy=-43.721163144902334 bias_energy=-42.91750454306866 name=displace pbc="T T T"
Si      13.26097147      14.87522340      14.20486031       0.07311339       0.06778439      -0.09378333
Si      14.58128431      14.55650615      12.23570892       0.07680359       0.11322479       0.08863753
Si      14.83053067      12.97554509      14.01885990       0.03517392      -0.02768783      -0.12463067
Si      12.66802564      12.69568791      15.01937877      -0.19625905      -0.14840052       0.17163820
Si      12.78418791      13.02203745      12.64619210       0.01116815      -0.00492083      -0.04186173
