5
Lattice="27.25 0.0 0.0 0.0 27.25 0.0 0.0 0.0 27.25" Properties=species:S:1:pos:R:3:forces:R:3 energy=-43.72148988749107 bias_energy=0 name=displace pbc="T T T"
Si      13.25447954      12.47940509      12.86255482      -0.00552858       0.00213159       0.02548812
Si      14.57035350      12.49511991      14.86495413      -0.14420259      -0.20766063      -0.01066023
Si      14.83804823      14.31651429      13.32904720       0.00822406      -0.00702909       0.03098939
Si      12.67822733      14.75378468      12.38512438       0.14860044       0.24497630      -0.08890739
Si      12.78389140      14.08017602      14.68331947      -0.00709334      -0.03241817       0.04309012
5
Lattice="27.25 0.0 0.0 0.0 27.25 0.0 0.0 0.0 27.25" Properties=species:S:1:pos:R:3:forces:R:3 energy=-43.72133169560183 bias_energy=-43.701298333374936 name=displace pbc="T T T"
Si      13.18012046      13.30076094      12.31108663      -0.03841773       0.04295729      -0.01576113
Si      13.12971014      11.86256324      14.22898577      -0.16296814      -0.21390796      -0.01965991
Si      14.97719791      13.37651519      14.00334508       0.02736143      -0.03895459       0.07141902
Si      14.12019830      15.38553538      13.01702524       0.18514283       0.23072753      -0.04986923
Si      12.71777319      14.19962525      14.56455728      -0.01111839      -0.02082227       0.01387125
5
Lattice="27.25 0.0 0.0 0.0 27.25 0.0 0.0 0.0 27.25" Properties=species:S:1:pos:R:3:forces:R:3 energy=-43.72129389016962 bias_energy=-43.5047965954369 name=displace pbc="T T T"
Si      13.19240259      13.35535571      12.29404210      -0.03526051       0.04449840      -0.01028240
Si      13.04589739      11.86861848      14.16639046      -0.16501641      -0.21300510      -0.02290850
Si      14.95656396      13.30787715      14.02643059       0.02135485      -0.03835261       0.06988269
Si      14.20535683      15.38129016      13.07982369       0.18697089       0.22925580      -0.04983639
Si      12.72477923      14.21185851      14.55831315      -0.00804881      -0.02239648       0.01314459
5
Lattice="27.25 0.0 0.0 0.0 27.25 0.0 0.0 0.0 27.25" Properties=species:S:1:pos:R:3:forces:R:3 energy=-43.72129929433147 bias_energy=-43.308784506151575 name=displace pbc="T T T"
Si      13.21018787      13.40735336      12.27944197      -0.03499701       0.04436120      -0.00954022
Si      12.96657211      11.87779259      14.10926619      -0.16498278      -0.21296971      -0.02310846
Si      14.93483476      13.24586551      14.04053034       0.02075564      -0.03799946       0.06965234
Si      14.28408576      15.37211704      13.13905937       0.18689033       0.22926322      -0.05010370
Si      12.72931948      14.22187150      14.55670213      -0.00766619      -0.02265526       0.01310004
5
Lattice="27.25 0.0 0.0 0.0 27.25 0.0 0.0 0.0 27.25" Properties=species:S:1:pos:R:3:forces:R:3 energy=-43.721135781382465 bias_energy=-43.11322318638883 name=displace pbc="T T T"
Si      13.22656069      13.45576979      12.26781304      -0.03488491       0.04428794      -0.00918071
Si      12.89523922      11.89056892      14.05396176      -0.16494960      -0.21298405      -0.02315600
Si      14.91256625      13.18849530      14.05322523       0.02050814      -0.03775644       0.06952620
Si      14.35555921      15.35927150      13.19400484       0.18683946       0.22926417      -0.05028873
Si      12.73507463      14.23089449      14.55599513      -0.00751309      -0.02281163       0.01309924
5
Lattice="27.25 0.0 0.0 0.0 27.25 0.0 0.0 0.0 27.25" Properties=species:S:1:pos:R:3:forces:R:3 energy=-43.720895337785926 bias_energy=-42.91807231305386 name=displace pbc="T T T"
Si      13.24259969      13.50050490      12.25863708      -0.03485542       0.04422875      -0.00903250
Si      12.83070829      11.90564530      14.00211074      -0.16490235      -0.21299346      -0.02314979
Si      14.89014169      13.13590624      14.06273468       0.02042806      -0.03763565       0.06947487
Si      14.42030286      15.34409707      13.24533906       0.18678626       0.22928496      -0.05039149
Si      12.74124746      14.23884649      14.55617845      -0.00745655      -0.02288460       0.01309891
5
Lattice="27.25 0.0 0.0 0.0 27.25 0.0 0.0 0.0 27.25" Properties=species:S:1:pos:R:3:forces:R:3 energy=-43.720587446649546 bias_energy=-42.72303385999601 name=displace pbc="T T T"
Si      13.25791273      13.54159151      12.25158448      -0.03485382       0.04418465      -0.00896910
Si      12.77280311      11.92224261      13.95395971      -0.16486215      -0.21300371      -0.02312954
Si      14.86809187      13.08808233      14.06947107       0.02040980      -0.03756485       0.06945334
Si      14.47849585      15.32733954      13.29274022       0.18674396       0.22930546      -0.05045492
Si      12.74769645      14.24574401      14.55724452      -0.00743778      -0.02292155       0.01310022
5
Lattice="27.25 0.0 0.0 0.0 27.25 0.0 0.0 0.0 27.25" Properties=species:S:1:pos:R:3:forces:R:3 energy=-43.720239074297325 bias_energy=-42.527804766762756 name=displace pbc="T T T"
Si      13.27225529      13.57905401      12.24635709      -0.03486109       0.04415039      -0.00893966
Si      12.72127915      11.93962067      13.90979601      -0.16482856      -0.21301338      -0.02310705
Si      14.84687627      13.04500268      14.07366993       0.02041314      -0.03751803       0.06944403
Si      14.53035034      15.30970182      13.33601795       0.18670970       0.22932368      -0.05049887
Si      12.75423895      14.25162082      14.55915901      -0.00743319      -0.02294266       0.01310155
5
Lattice="27.25 0.0 0.0 0.0 27.25 0.0 0.0 0.0 27.25" Properties=species:S:1:pos:R:3:forces:R:3 energy=-43.71990635315106 bias_energy=-42.33215230620915 name=displace pbc="T T T"
Si      13.28548737      13.61297188      12.24270281      -0.03487058       0.04412276      -0.00892474
Si      12.67582119      11.95719366      13.86978494      -0.16480041      -0.21302250      -0.02308571
Si      14.82683401      13.00654955      14.07552295       0.02042381      -0.03748361       0.06944010
Si      14.57615066      15.29174956      13.37512585       0.18668134       0.22933943      -0.05053218
Si      12.76070678      14.25653535      14.56186345      -0.00743416      -0.02295608       0.01310252
5
Lattice="27.25 0.0 0.0 0.0 27.25 0.0 0.0 0.0 27.25" Properties=species:S:1:pos:R:3:forces:R:3 energy=-43.71979322968858 bias_energy=-42.135931976555725 name=displace pbc="T T T"
Si      13.29743350      13.64346389      12.24029816      -0.03487992       0.04409971      -0.00891625
Si      12.63629310      11.97486112      13.83391925      -0.16477649      -0.21303133      -0.02306626
Si      14.80826926      12.97247255      14.07532378       0.02043642      -0.03745606       0.06943866
Si      14.61598750      15.27360426      13.41019159       0.18665730       0.22935305      -0.05055921
Si      12.76701664      14.26059818      14.56526723      -0.00743731      -0.02296537       0.01310306
5
Lattice="27.25 0.0 0.0 0.0 27.25 0.0 0.0 0.0 27.25" Properties=species:S:1:pos:R:3:forces:R:3 energy=-43.71967567440276 bias_energy=-41.93906513470715 name=displace pbc="T T T"
Si      13.30718995      13.67060245      12.23823843      -0.03488846       0.04407913      -0.00890973
Si      12.60228800      11.99160583      13.80226353      -0.16475522      -0.21304068      -0.02304812
Si      14.79219341      12.94229779      14.07422332       0.02044849      -0.03743137       0.06943810
Si      14.65017768      15.25648565      13.44099228       0.18663564       0.22936547      -0.05058278
Si      12.77315097      14.26400827      14.56928243      -0.00744045      -0.02297256       0.01310254
5
Lattice="27.25 0.0 0.0 0.0 27.25 0.0 0.0 0.0 27.25" Properties=species:S:1:pos:R:3:forces:R:3 energy=-43.71947250869196 bias_energy=-41.741563898724046 name=displace pbc="T T T"
Si      13.31519758      13.69478565      12.23735618      -0.03489705       0.04406100      -0.00890609
Si      12.57303231      12.00709905      13.77455359      -0.16473678      -0.21304892      -0.02303217
Si      14.77764349      12.91620247      14.07211201       0.02046045      -0.03741133       0.06943930
Si      14.67971145      15.24079810      13.46758778       0.18661637       0.22937694      -0.05060188
Si      12.77941517      14.26611474      14.57339045      -0.00744300      -0.02297768       0.01310085
5
Lattice="27.25 0.0 0.0 0.0 27.25 0.0 0.0 0.0 27.25" Properties=species:S:1:pos:R:3:forces:R:3 energy=-43.719044115278386 bias_energy=-41.54339836320463 name=displace pbc="T T T"
Si      13.32013290      13.71634072      12.23718237      -0.03490447       0.04404528      -0.00890424
Si      12.54882347      12.02101196      13.74987602      -0.16472070      -0.21305473      -0.02301858
Si      14.76504409      12.89406499      14.07114297       0.02047172      -0.03739538       0.06944118
Si      14.70459450      15.22668982      13.48931434       0.18660001       0.22938672      -0.05061786
Si      12.78640503      14.26689249      14.57748430      -0.00744656      -0.02298189       0.01309950
5
Lattice="27.25 0.0 0.0 0.0 27.25 0.0 0.0 0.0 27.25" Properties=species:S:1:pos:R:3:forces:R:3 energy=-43.71888993178848 bias_energy=-41.34501650091088 name=displace pbc="T T T"
Si      13.32686593      13.73491893      12.23769743      -0.03491183       0.04403164      -0.00890432
Si      12.52669212      12.03316819      13.73044426      -0.16470694      -0.21305804      -0.02300740
Si      14.75382100      12.87453765      14.06465426       0.02048265      -0.03738455       0.06944382
Si      14.72658671      15.21432912      13.50984983       0.18658595       0.22939561      -0.05062939
Si      12.79103424      14.26804611      14.58235421      -0.00744983      -0.02298466       0.01309729
5
Lattice="27.25 0.0 0.0 0.0 27.25 0.0 0.0 0.0 27.25" Properties=species:S:1:pos:R:3:forces:R:3 energy=-43.71843112561057 bias_energy=-41.146037195906366 name=displace pbc="T T T"
Si      13.32891753      13.75202873      12.23808655      -0.03491560       0.04402016      -0.00890376
Si      12.50910936      12.04440983      13.71200917      -0.16469561      -0.21306401      -0.02299668
Si      14.74469906      12.85781344      14.06237379       0.02049190      -0.03737120       0.06944651
Si      14.74467479      15.20310427      13.52574740       0.18657333       0.22940268      -0.05064389
Si      12.79759927      14.26764374      14.58678309      -0.00745402      -0.02298763       0.01309782
5
Lattice="27.25 0.0 0.0 0.0 27.25 0.0 0.0 0.0 27.25" Properties=species:S:1:pos:R:3:forces:R:3 energy=-43.7182741903313 bias_energy=-40.94690081295547 name=displace pbc="T T T"
Si      13.33162146      13.76675747      12.23914357      -0.03492129       0.04400961      -0.00890481
Si      12.49372071      12.05409880      13.69747726      -0.16468538      -0.21306611      -0.02298853
Si      14.73669253      12.84355881      14.05681485       0.02050065      -0.03736406       0.06944990
Si      14.76012046      15.19330569      13.54010946       0.18656273       0.22940959      -0.05065164
Si      12.80284484      14.26727923      14.59145485      -0.00745671      -0.02298904       0.01309508
5
Lattice="27.25 0.0 0.0 0.0 27.25 0.0 0.0 0.0 27.25" Properties=species:S:1:pos:R:3:forces:R:3 energy=-43.71789618399708 bias_energy=-40.747448501196736 name=displace pbc="T T T"
Si      13.33225546      13.78021163      12.24013804      -0.03492433       0.04400054      -0.00890466
Si      12.48102955      12.06261134      13.68441885      -0.16467680      -0.21306975      -0.02298124
Si      14.73023812      12.83121895      14.05258138       0.02050739      -0.03735545       0.06945294
Si      14.77322124      15.18472919      13.55145227       0.18655368       0.22941496      -0.05066061
Si      12.80825562      14.26622889      14.59640946      -0.00745994      -0.02299030       0.01309357
5
Lattice="27.25 0.0 0.0 0.0 27.25 0.0 0.0 0.0 27.25" Properties=species:S:1:pos:R:3:forces:R:3 energy=-43.717998364486846 bias_energy=-40.54806359381123 name=displace pbc="T T T"
Si      13.33425785      13.79147547      12.24148037      -0.03492731       0.04399277      -0.00890528
Si      12.46936979      12.06985612      13.67521127      -0.16466939      -0.21307148      -0.02297526
Si      14.72472918      12.82041830      14.04413856       0.02051358      -0.03734981       0.06945617
Si      14.78440490      15.17752305      13.56283712       0.18654618       0.22941968      -0.05066692
Si      12.81223829      14.26572706      14.60133268      -0.00746305      -0.02299116       0.01309128
5
Lattice="27.25 0.0 0.0 0.0 27.25 0.0 0.0 0.0 27.25" Properties=species:S:1:pos:R:3:forces:R:3 energy=-43.71781623888027 bias_energy=-40.34844165864702 name=displace pbc="T T T"
Si      13.33434259      13.80206777      12.24298467      -0.03492799       0.04398554      -0.00890467
Si      12.45971257      12.07624628      13.66660655      -0.16466297      -0.21307538      -0.02296979
Si      14.72012174      12.81106885      14.03739791       0.02051785      -0.03734178       0.06945946
Si      14.79410713      15.17126034      13.57158513       0.18653922       0.22942350      -0.05067525
Si      12.81671597      14.26435675      14.60642573      -0.00746610      -0.02299188       0.01309026
5
Lattice="27.25 0.0 0.0 0.0 27.25 0.0 0.0 0.0 27.25" Properties=species:S:1:pos:R:3:forces:R:3 energy=-43.71749292224179 bias_energy=-40.14866879743954 name=displace pbc="T T T"
Si      13.33264613      13.81187306      12.24437644      -0.03492872       0.04397938      -0.00890482
Si      12.45177882      12.08171498      13.65891492      -0.16465717      -0.21307682      -0.02296543
Si      14.71661334      12.80303395      14.03196948       0.02052177      -0.03733690       0.06946271
Si      14.80217779      15.16589764      13.57855386       0.18653362       0.22942676      -0.05068107
Si      12.82178392      14.26248037      14.61118529      -0.00746949      -0.02299241       0.01308861
5
Lattice="27.25 0.0 0.0 0.0 27.25 0.0 0.0 0.0 27.25" Properties=species:S:1:pos:R:3:forces:R:3 energy=-43.7172625280438 bias_energy=-39.948838773807864 name=displace pbc="T T T"
Si      13.33053704      13.82067793      12.24595660      -0.03492990       0.04397419      -0.00890592
Si      12.44519239      12.08635852      13.65258638      -0.16465291      -0.21307763      -0.02296227
Si      14.71379363      12.79623430      14.02620114       0.02052575      -0.03733416       0.06946644
Si      14.80889372      15.16126860      13.58427527       0.18652897       0.22942977      -0.05068454
Si      12.82658323      14.26046065      14.61598062      -0.00747191      -0.02299217       0.01308630
5
Lattice="27.25 0.0 0.0 0.0 27.25 0.0 0.0 0.0 27.25" Properties=species:S:1:pos:R:3:forces:R:3 energy=-43.72125240375858 bias_energy=0 name=displace pbc="T T T"
Si      13.33357267      13.81855346      12.24523428      -0.00552858       0.00213159       0.02548812
Si      12.45284250      12.09679933      13.65433295      -0.14420259      -0.20766063      -0.01066023
Si      14.71354828      12.79697298      14.02130527       0.00822406      -0.00702909       0.03098939
Si      14.80033627      15.15034327      13.58663485       0.14860044       0.24497630      -0.08890739
Si      12.82470027      14.26233095      14.61749265      -0.00709334      -0.03241817       0.04309012
