5
Lattice="27.25 0.0 0.0 0.0 27.25 0.0 0.0 0.0 27.25" Properties=species:S:1:pos:R:3:forces:R:3 energy=-43.72144162339433 bias_energy=0 name=displace pbc="T T T"
Si      14.59499931      12.71453945      13.11259334       0.08497292       0.10862820       0.00582192
Si      14.09776572      13.11751599      15.42229249       0.04297902      -0.15950538      -0.18868775
Si      13.99183833      14.97211561      13.90999883      -0.03723359       0.12546684      -0.02360153
Si      13.15157884      14.13822371      11.82951655      -0.12180628      -0.16095156       0.22194104
Si      12.28881780      13.18260524      13.85059879       0.03108793       0.08636190      -0.01547368
5
Lattice="27.25 0.0 0.0 0.0 27.25 0.0 0.0 0.0 27.25" Properties=species:S:1:pos:R:3:forces:R:3 energy=-43.721472328619086 bias_energy=-43.52416050728323 name=displace pbc="T T T"
Si      14.61160457      12.79216815      13.02154248       0.12907705       0.15652322      -0.03367116
Si      14.24140966      13.08564356      15.36754203       0.08678518      -0.19175663      -0.18344969
Si      13.93085014      14.98289796      13.93571703      -0.05030718       0.12053167       0.00035243
Si      13.01023844      14.16020849      11.87940806      -0.18240581      -0.15893658       0.16982239
Si      12.33089719      13.10408184      13.92079039       0.01685076       0.07363832       0.04694603
5
Lattice="27.25 0.0 0.0 0.0 27.25 0.0 0.0 0.0 27.25" Properties=species:S:1:pos:R:3:forces:R:3 energy=-43.721472328619086 bias_energy=0 name=displace pbc="T T T"
Si      14.61160457      12.79216815      13.02154248       0.08497292       0.10862820       0.00582192
Si      14.24140966      13.08564356      15.36754203       0.04297902      -0.15950538      -0.18868775
Si      13.93085014      14.98289796      13.93571703      -0.03723359       0.12546684      -0.02360153
Si      13.01023844      14.16020849      11.87940806      -0.12180628      -0.16095156       0.22194104
Si      12.33089719      13.10408184      13.92079039       0.03108793       0.08636190      -0.01547368
