5
Lattice="27.25 0.0 0.0 0.0 27.25 0.0 0.0 0.0 27.25" Properties=species:S:1:pos:R:3:forces:R:3 energy=-43.721472328619086 bias_energy=0 name=displace pbc="T T T"
Si      14.61160457      12.79216815      13.02154248      -0.00886331       0.04956358      -0.09498707
Si      14.24140966      13.08564356      15.36754203      -0.03823931      -0.09108115       0.23089928
Si      13.93085014      14.98289796      13.93571703       0.04838604      -0.04337165      -0.20360933
Si      13.01023844      14.16020849      11.87940806      -0.03317635       0.02842439       0.23978024
Si      12.33089719      13.10408184      13.92079039       0.03189293       0.05646484      -0.17208311
5
Lattice="27.25 0.0 0.0 0.0 27.25 0.0 0.0 0.0 27.25" Properties=species:S:1:pos:R:3:forces:R:3 energy=-43.72117596109423 bias_energy=-43.52186333837965 name=displace pbc="T T T"
Si      14.55469332      12.74845075      12.99154937       0.01595542       0.02468937      -0.06890381
Si      14.21086865      13.00334520      15.35132774      -0.14910293      -0.11129187       0.18512620
Si      14.01342353      14.94966441      13.97436220       0.19885825      -0.06405878      -0.15455890
Si      13.04034906      14.25827548      11.90142869      -0.09711263       0.11443247       0.19089322
Si      12.30566544      13.16526417      13.90633201       0.03140189       0.03622880      -0.15255671
5
Lattice="27.25 0.0 0.0 0.0 27.25 0.0 0.0 0.0 27.25" Properties=species:S:1:pos:R:3:forces:R:3 energy=-43.72102754809718 bias_energy=-43.32461107308955 name=displace pbc="T T T"
Si      14.49628245      12.71415374      12.95725406       0.01545814       0.02476253      -0.06912715
Si      14.17550424      12.91092753      15.32762504      -0.14902909      -0.11012563       0.18457345
Si      14.09914184      14.90966690      14.01459748       0.19857551      -0.06594938      -0.15455178
Si      13.07284665      14.35205101      11.92798174      -0.09658983       0.11498666       0.19156492
Si      12.28122481      13.23820083      13.89754169       0.03158528       0.03632582      -0.15245944
5
Lattice="27.25 0.0 0.0 0.0 27.25 0.0 0.0 0.0 27.25" Properties=species:S:1:pos:R:3:forces:R:3 energy=-43.72076854308315 bias_energy=-43.132272786857094 name=displace pbc="T T T"
Si      14.43487787      12.68988591      12.91607369       0.01546902       0.02477550      -0.06910001
Si      14.12694158      12.80300386      15.29495568      -0.14900835      -0.11004345       0.18459765
Si      14.19608855      14.85787104      14.05646606       0.19845091      -0.06601132      -0.15471199
Si      13.10826376      14.44569355      11.96230239      -0.09656460       0.11498832       0.19164507
Si      12.25882823      13.32854565      13.89520218       0.03165302       0.03629095      -0.15243071
5
Lattice="27.25 0.0 0.0 0.0 27.25 0.0 0.0 0.0 27.25" Properties=species:S:1:pos:R:3:forces:R:3 energy=-43.71094413786005 bias_energy=-43.368805824805236 name=displace pbc="T T T"
Si      12.89033168      13.90373256      12.43225177       0.01546501       0.02475725      -0.06910220
Si      12.51748787      12.07727600      13.97085141      -0.14898997      -0.11003270       0.18463949
Si      14.78451456      12.78652510      13.52333232       0.19838463      -0.06597518      -0.15480343
Si      14.71840626      15.18648267      13.33669701      -0.09654813       0.11499507       0.19167342
Si      13.21425963      14.17098367      14.86186750       0.03168846       0.03625555      -0.15240728
5
Lattice="27.25 0.0 0.0 0.0 27.25 0.0 0.0 0.0 27.25" Properties=species:S:1:pos:R:3:forces:R:3 energy=-43.71072582906135 bias_energy=-43.17480479695535 name=displace pbc="T T T"
Si      12.88093350      13.90102899      12.43750668       0.01575235       0.02444853      -0.06920881
Si      12.55944484      12.04328300      13.94939688      -0.14821928      -0.10996144       0.18527592
Si      14.80663701      12.81751283      13.50963601       0.19745101      -0.06528118      -0.15545051
Si      14.67616271      15.21995721      13.35785657      -0.09651337       0.11470349       0.19212864
Si      13.20182193      14.14321797      14.87060385       0.03152930       0.03609061      -0.15274525
5
Lattice="27.25 0.0 0.0 0.0 27.25 0.0 0.0 0.0 27.25" Properties=species:S:1:pos:R:3:forces:R:3 energy=-43.71086115207545 bias_energy=-42.9799916260816 name=displace pbc="T T T"
Si      12.87257830      13.89841703      12.44202605       0.01577693       0.02445684      -0.06921757
Si      12.59897505      12.01374112      13.92910742      -0.14823684      -0.10994610       0.18528179
Si      14.82566246      12.84856304      13.49672880       0.19742589      -0.06528578      -0.15544868
Si      14.63562714      15.24955406      13.37810899      -0.09651642       0.11467655       0.19212978
Si      13.19215706      14.11472475      14.87902874       0.03155044       0.03609849      -0.15274532
5
Lattice="27.25 0.0 0.0 0.0 27.25 0.0 0.0 0.0 27.25" Properties=species:S:1:pos:R:3:forces:R:3 energy=-43.71030209924536 bias_energy=-42.784288048385044 name=displace pbc="T T T"
Si      12.86492536      13.89614359      12.44785183       0.01579942       0.02446602      -0.06922500
Si      12.63598205      11.98857222      13.90989510      -0.14825431      -0.10993358       0.18528742
Si      14.84283660      12.87652082      13.48382086       0.19740218      -0.06528791      -0.15544526
Si      14.59692040      15.27540501      13.39838575      -0.09651887       0.11465044       0.19213006
Si      13.18433559      14.08835836      14.88504646       0.03157158       0.03610503      -0.15274721
5
Lattice="27.25 0.0 0.0 0.0 27.25 0.0 0.0 0.0 27.25" Properties=species:S:1:pos:R:3:forces:R:3 energy=-43.710325412557104 bias_energy=-42.58819554409263 name=displace pbc="T T T"
Si      12.85680219      13.89469355      12.45141197       0.01582015       0.02447359      -0.06923247
Si      12.67058414      11.96420202      13.89148148      -0.14827009      -0.10992262       0.18529323
Si      14.85793713      12.90486935      13.47180847       0.19738068      -0.06529104      -0.15544253
Si      14.56102938      15.29923060      13.41702439      -0.09651897       0.11462928       0.19212967
Si      13.17864715      14.06200447      14.89327370       0.03158823       0.03611080      -0.15274790
5
Lattice="27.25 0.0 0.0 0.0 27.25 0.0 0.0 0.0 27.25" Properties=species:S:1:pos:R:3:forces:R:3 energy=-43.70990147725511 bias_energy=-42.39147871449975 name=displace pbc="T T T"
Si      12.84894669      13.89347567      12.45641378       0.01583810       0.02448501      -0.06923884
Si      12.70326816      11.94323204      13.87388125      -0.14828655      -0.10991688       0.18529740
Si      14.87157139      12.93073956      13.45950164       0.19736239      -0.06529166      -0.15543719
Si      14.52663739      15.32031567      13.43546089      -0.09651986       0.11460467       0.19212774
Si      13.17457638      14.03723706      14.89974245       0.03160593       0.03611886      -0.15274910
5
Lattice="27.25 0.0 0.0 0.0 27.25 0.0 0.0 0.0 27.25" Properties=species:S:1:pos:R:3:forces:R:3 energy=-43.70942885482301 bias_energy=-42.194290364993094 name=displace pbc="T T T"
Si      12.84117823      13.89264916      12.46152948       0.01585453       0.02449445      -0.06924526
Si      12.73373918      11.92455631      13.85714569      -0.14830121      -0.10991171       0.18530156
Si      14.88363122      12.95501596      13.44741421       0.19734567      -0.06529338      -0.15543229
Si      14.49444757      15.33907530      13.45307944      -0.09651935       0.11458458       0.19212562
Si      13.17200380      14.01370327      14.90583118       0.03162036       0.03612606      -0.15274963
5
Lattice="27.25 0.0 0.0 0.0 27.25 0.0 0.0 0.0 27.25" Properties=species:S:1:pos:R:3:forces:R:3 energy=-43.70895178000876 bias_energy=-41.996695053667175 name=displace pbc="T T T"
Si      12.83346578      13.89218283      12.46675973       0.01586910       0.02450362      -0.06925130
Si      12.76205495      11.90795079      13.84123661      -0.14831474      -0.10990826       0.18530516
Si      14.89424112      12.97774922      13.43556013       0.19733096      -0.06529499      -0.15542700
Si      14.46441150      15.35574080      13.46982340      -0.09651846       0.11456635       0.19212309
Si      13.17082666      13.99137636      14.91162013       0.03163314       0.03613328      -0.15274996
5
Lattice="27.25 0.0 0.0 0.0 27.25 0.0 0.0 0.0 27.25" Properties=species:S:1:pos:R:3:forces:R:3 energy=-43.70848309575396 bias_energy=-41.79874754139867 name=displace pbc="T T T"
Si      12.82578171      13.89205055      12.47212270       0.01588196       0.02451242      -0.06925697
Si      12.78827593      11.89320399      13.82614949      -0.14832718      -0.10990620       0.18530825
Si      14.90353101      12.99897907      13.42390660       0.19731805      -0.06529648      -0.15542137
Si      14.43647861      15.37052884      13.48566950      -0.09651734       0.11454989       0.19212026
Si      13.17093274      13.97023755      14.91715171       0.03164452       0.03614038      -0.15275016
5
Lattice="27.25 0.0 0.0 0.0 27.25 0.0 0.0 0.0 27.25" Properties=species:S:1:pos:R:3:forces:R:3 energy=-43.70803191916293 bias_energy=-41.60049571558237 name=displace pbc="T T T"
Si      12.81810114      13.89222739      12.47763593       0.01589330       0.02452076      -0.06926233
Si      12.81247019      11.88012433      13.81188133      -0.14833857      -0.10990524       0.18531087
Si      14.91161781      13.01874912      13.41241853       0.19730670      -0.06529787      -0.15541547
Si      14.41059097      15.38363556      13.50060336      -0.09651610       0.11453509       0.19211722
Si      13.17221988      13.95026362      14.92246085       0.03165467       0.03614726      -0.15275029
5
Lattice="27.25 0.0 0.0 0.0 27.25 0.0 0.0 0.0 27.25" Properties=species:S:1:pos:R:3:forces:R:3 energy=-43.707605266406446 bias_energy=-41.40198189878883 name=displace pbc="T T T"
Si      12.81040230      13.89268887      12.48331496       0.01590331       0.02452860      -0.06926745
Si      12.83471246      11.86853869      13.79842818      -0.14834898      -0.10990514       0.18531308
Si      14.91860630      13.03710785      13.40106111       0.19729672      -0.06529914      -0.15540935
Si      14.38668213      15.39523871      13.51461758      -0.09651483       0.11452181       0.19211407
Si      13.17459682      13.93142588      14.92757817       0.03166378       0.03615386      -0.15275036
5
Lattice="27.25 0.0 0.0 0.0 27.25 0.0 0.0 0.0 27.25" Properties=species:S:1:pos:R:3:forces:R:3 energy=-43.70720845282271 bias_energy=-41.203243634956145 name=displace pbc="T T T"
Si      12.80266598      13.89341088      12.48917357       0.01591215       0.02453592      -0.06927236
Si      12.85508371      11.85829063      13.78578440      -0.14835848      -0.10990568       0.18531493
Si      14.92459034      13.05410865      13.38980017       0.19728793      -0.06530029      -0.15540303
Si      14.36467748      15.40549930      13.52771106      -0.09651359       0.11450992       0.19211086
Si      13.17798248      13.91369053      14.93253080       0.03167199       0.03616013      -0.15275040
5
Lattice="27.25 0.0 0.0 0.0 27.25 0.0 0.0 0.0 27.25" Properties=species:S:1:pos:R:3:forces:R:3 energy=-43.70684532225229 bias_energy=-41.00431419688546 name=displace pbc="T T T"
Si      12.79487513      13.89436971      12.49522424       0.01591998       0.02454269      -0.06927712
Si      12.87367047      11.84923879      13.77394245      -0.14836714      -0.10990669       0.18531646
Si      14.92965386      13.06980936      13.37860220       0.19728016      -0.06530134      -0.15539654
Si      14.34449517      15.41456295      13.53988838      -0.09651242       0.11449929       0.19210765
Si      13.18230537      13.89701920      14.93734273       0.03167941       0.03616604      -0.15275045
5
Lattice="27.25 0.0 0.0 0.0 27.25 0.0 0.0 0.0 27.25" Properties=species:S:1:pos:R:3:forces:R:3 energy=-43.7065183107445 bias_energy=-40.80522293339524 name=displace pbc="T T T"
Si      12.78701442      13.89554204      12.50147853       0.01592693       0.02454894      -0.06928176
Si      12.89056378      11.84125562      13.76289280      -0.14837502      -0.10990804       0.18531770
Si      14.93387191      13.08427166      13.36743443       0.19727328      -0.06530227      -0.15538991
Si      14.32604699      15.42256099      13.55115926      -0.09651136       0.11448981       0.19210448
Si      13.18750290      13.88136968      14.94203498       0.03168618       0.03617157      -0.15275051
5
Lattice="27.25 0.0 0.0 0.0 27.25 0.0 0.0 0.0 27.25" Properties=species:S:1:pos:R:3:forces:R:3 energy=-43.70622826344177 bias_energy=-40.60599552827713 name=displace pbc="T T T"
Si      12.77906995      13.89690508      12.50794738       0.01593311       0.02455465      -0.06928633
Si      12.90585794      11.83422624      13.75262422      -0.14838221      -0.10990962       0.18531870
Si      14.93731179      13.09756028      13.35626476       0.19726715      -0.06530310      -0.15538313
Si      14.30923936      15.42961167      13.56153812      -0.09651044       0.11448136       0.19210137
Si      13.19352096      13.86669673      14.94662551       0.03169239       0.03617670      -0.15275060
5
Lattice="27.25 0.0 0.0 0.0 27.25 0.0 0.0 0.0 27.25" Properties=species:S:1:pos:R:3:forces:R:3 energy=-43.70597392391618 bias_energy=-40.40665421632647 name=displace pbc="T T T"
Si      12.77102904      13.89843648      12.51464151       0.01593862       0.02455986      -0.06929085
Si      12.91964894      11.82804727      13.74312421      -0.14838875      -0.10991133       0.18531947
Si      14.94003454      13.10974197      13.34506168       0.19726168      -0.06530382      -0.15537622
Si      14.29397405      15.43582141      13.57104380      -0.09650966       0.11447385       0.19209834
Si      13.20031343      13.85295288      14.95112880       0.03169812       0.03618143      -0.15275074
5
Lattice="27.25 0.0 0.0 0.0 27.25 0.0 0.0 0.0 27.25" Properties=species:S:1:pos:R:3:forces:R:3 energy=-43.705751146953546 bias_energy=-40.207217987057724 name=displace pbc="T T T"
Si      12.76288013      13.90011442      12.52157194       0.01594355       0.02456458      -0.06929536
Si      12.93203274      11.82262552      13.73437959      -0.14839471      -0.10991309       0.18532005
Si      14.94209655      13.12088450      13.33379398       0.19725677      -0.06530445      -0.15536916
Si      14.28014897      15.44128650      13.57969931      -0.09650904       0.11446719       0.19209541
Si      13.20784161      13.84008906      14.95555518       0.03170343       0.03618577      -0.15275094
5
Lattice="27.25 0.0 0.0 0.0 27.25 0.0 0.0 0.0 27.25" Properties=species:S:1:pos:R:3:forces:R:3 energy=-43.721511800587805 bias_energy=0 name=displace pbc="T T T"
Si      12.74072632      13.90833703      12.54193237      -0.00886331       0.04956358      -0.09498707
Si      12.95240935      11.82253785      13.70253864      -0.03823931      -0.09108115       0.23089928
Si      14.93556718      13.12549353      13.36383328       0.04838604      -0.04337165      -0.20360933
Si      14.29686117      15.42715551      13.54736691      -0.03317635       0.02842439       0.23978024
Si      13.19943597      13.84147609      14.96932879       0.03189293       0.05646484      -0.17208311
