5
Lattice="27.25 0.0 0.0 0.0 27.25 0.0 0.0 0.0 27.25" Properties=species:S:1:pos:R:3:forces:R:3 energy=-43.72148082831332 bias_energy=0 name=displace pbc="T T T"
Si      13.36752728      12.69849347      12.57229419      -0.05674806       0.08886042       0.05070995
Si      15.49352269      13.63034336      13.16022338       0.20432358      -0.18793413       0.11372175
Si      13.55667845      15.02825413      13.37570021      -0.10517367       0.09687456       0.07621965
Si      11.75668692      13.61725588      14.08689035       0.06048320      -0.12702248      -0.19413299
Si      13.95058466      13.15065317      14.92989188      -0.10288505       0.12922162      -0.04651836
5
Lattice="27.25 0.0 0.0 0.0 27.25 0.0 0.0 0.0 27.25" Properties=species:S:1:pos:R:3:forces:R:3 energy=-43.721363316827976 bias_energy=-43.52579111590857 name=displace pbc="T T T"
Si      13.46735069      12.70782905      12.54588920       0.01528957       0.10219641      -0.00811126
Si      15.53198377      13.61700990      13.35294011       0.14914773      -0.19590818       0.17139119
Si      13.59095590      15.02717064      13.37075654      -0.03880076       0.07925519       0.06835187
Si      11.71848865      13.62705313      13.90263435      -0.00941316      -0.13506462      -0.23699940
Si      13.81622098      13.14593727      14.95277980      -0.11622338       0.14952120       0.00536761
5
Lattice="27.25 0.0 0.0 0.0 27.25 0.0 0.0 0.0 27.25" Properties=species:S:1:pos:R:3:forces:R:3 energy=-43.720354601028646 bias_energy=-43.651617054102026 name=displace pbc="T T T"
Si      14.52465267      12.70396276      13.01736140       0.01562391       0.10255001      -0.00733378
Si      14.53769585      13.39225913      15.30847702       0.14849055      -0.19633136       0.17147756
Si      13.93310231      15.01860800      13.64399977      -0.03890237       0.07908895       0.06903144
Si      12.71897786      13.83920152      11.93617318      -0.00850850      -0.13526068      -0.23786755
Si      12.41057132      13.17096860      14.21898863      -0.11670360       0.14995308       0.00469233
5
Lattice="27.25 0.0 0.0 0.0 27.25 0.0 0.0 0.0 27.25" Properties=species:S:1:pos:R:3:forces:R:3 energy=-43.71997077967699 bias_energy=-43.4526293472999 name=displace pbc="T T T"
Si      14.53502803      12.70969893      13.02635894       0.01390494       0.10360859      -0.00596770
Si      14.49950869      13.37169699      15.32772009       0.14933922      -0.19749952       0.16938636
Si      13.94282876      15.01460401      13.65924425      -0.04100178       0.07855006       0.06971549
Si      12.74932166      13.85679376      11.92084018      -0.00657416      -0.13621482      -0.23683285
Si      12.39831286      13.17220632      14.19083655      -0.11566821       0.15155568       0.00369870
5
Lattice="27.25 0.0 0.0 0.0 27.25 0.0 0.0 0.0 27.25" Properties=species:S:1:pos:R:3:forces:R:3 energy=-43.719903015224226 bias_energy=-43.25367752221616 name=displace pbc="T T T"
Si      14.54223562      12.71098573      13.03565557       0.01386708       0.10362651      -0.00595303
Si      14.46683267      13.35376243      15.34159209       0.14940629      -0.19751009       0.16931487
Si      13.94798808      15.01271310      13.67651910      -0.04107354       0.07855170       0.06969503
Si      12.78174647      13.87454471      11.90684650      -0.00657392      -0.13626580      -0.23680261
Si      12.38619716      13.17299403      14.16438674      -0.11562592       0.15159768       0.00374573
5
Lattice="27.25 0.0 0.0 0.0 27.25 0.0 0.0 0.0 27.25" Properties=species:S:1:pos:R:3:forces:R:3 energy=-43.71979454481672 bias_energy=-43.054574946200006 name=displace pbc="T T T"
Si      14.54877605      12.71224139      13.04419254       0.01383332       0.10364473      -0.00593850
Si      14.43624255      13.33649737      15.35371524       0.14946841      -0.19750859       0.16926178
Si      13.95243948      15.01086918      13.69298144      -0.04112327       0.07854191       0.06966955
Si      12.81220141      13.89126215      11.89452203      -0.00658878      -0.13630467      -0.23677886
Si      12.37534052      13.17412991      14.13958875      -0.11558968       0.15162662       0.00378602
5
Lattice="27.25 0.0 0.0 0.0 27.25 0.0 0.0 0.0 27.25" Properties=species:S:1:pos:R:3:forces:R:3 energy=-43.719659291914105 bias_energy=-42.85534023611952 name=displace pbc="T T T"
Si      14.55470031      12.71348970      13.05202271       0.01380475       0.10366004      -0.00592636
Si      14.40765024      13.31999608      15.36431134       0.14952415      -0.19750518       0.16921653
Si      13.95634392      15.00900221      13.70860646      -0.04116506       0.07853426       0.06964471
Si      12.84065890      13.90706201      11.88368684      -0.00660472      -0.13633900      -0.23675933
Si      12.36564664      13.17545000      14.11637265      -0.11555912       0.15164987       0.00382445
5
Lattice="27.25 0.0 0.0 0.0 27.25 0.0 0.0 0.0 27.25" Properties=species:S:1:pos:R:3:forces:R:3 energy=-43.71982259779058 bias_energy=-42.65618272753077 name=displace pbc="T T T"
Si      14.55912333      12.71342825      13.05989189       0.01378108       0.10367254      -0.00591650
Si      14.38106416      13.30482593      15.37214195       0.14957343      -0.19750036       0.16917860
Si      13.96002835      15.00874805      13.72483818      -0.04119947       0.07852866       0.06962149
Si      12.86756992      13.92191969      11.87420488      -0.00662109      -0.13636898      -0.23674404
Si      12.35721423      13.17607808      14.09392311      -0.11553394       0.15166813       0.00386045
5
Lattice="27.25 0.0 0.0 0.0 27.25 0.0 0.0 0.0 27.25" Properties=species:S:1:pos:R:3:forces:R:3 energy=-43.71967137988574 bias_energy=-42.456754116510915 name=displace pbc="T T T"
Si      14.56389095      12.71455690      13.06638926       0.01375854       0.10368395      -0.00590625
Si      14.35618994      13.28976618      15.38013559       0.14961815      -0.19749220       0.16914858
Si      13.96320344      15.00696950      13.73894981      -0.04122148       0.07852112       0.06960872
Si      12.89230084      13.93607565      11.86588232      -0.00664749      -0.13639709      -0.23674477
Si      12.34941483      13.17763177      14.07364301      -0.11550772       0.15168422       0.00389372
5
Lattice="27.25 0.0 0.0 0.0 27.25 0.0 0.0 0.0 27.25" Properties=species:S:1:pos:R:3:forces:R:3 energy=-43.71951685264089 bias_energy=-42.25723564960114 name=displace pbc="T T T"
Si      14.56818663      12.71565163      13.07223547       0.01374262       0.10369205      -0.00589966
Si      14.33316719      13.27554614      15.38704666       0.14965623      -0.19748570       0.16912247
Si      13.96600636      15.00520413      13.75221717      -0.04124475       0.07851834       0.06958961
Si      12.91514569      13.94943659      11.85865362      -0.00666335      -0.13641981      -0.23673683
Si      12.34249412      13.17916151      14.05484708      -0.11549075       0.15169512       0.00392441
5
Lattice="27.25 0.0 0.0 0.0 27.25 0.0 0.0 0.0 27.25" Properties=species:S:1:pos:R:3:forces:R:3 energy=-43.71936181746795 bias_energy=-42.05763713060617 name=displace pbc="T T T"
Si      14.57204324      12.71672505      13.07748403       0.01372980       0.10369836      -0.00589439
Si      14.31193412      13.26214268      15.39295858       0.14968932      -0.19747888       0.16910116
Si      13.96847336      15.00348627      13.76466787      -0.04126353       0.07851659       0.06957230
Si      12.93616927      13.96199585      11.85241026      -0.00667849      -0.13643933      -0.23673153
Si      12.33638001      13.18065016      14.03747926      -0.11547710       0.15170327       0.00395247
5
Lattice="27.25 0.0 0.0 0.0 27.25 0.0 0.0 0.0 27.25" Properties=species:S:1:pos:R:3:forces:R:3 energy=-43.71921211229418 bias_energy=-41.85796729446504 name=displace pbc="T T T"
Si      14.57549922      12.71778029      13.08217015       0.01371939       0.10370332      -0.00589003
Si      14.29241653      13.24955319      15.39797405       0.14971811      -0.19747200       0.16908370
Si      13.97064691      15.00182999      13.77631760      -0.04127866       0.07851557       0.06955679
Si      12.95543463      13.97377409      11.84705431      -0.00669282      -0.13645622      -0.23672851
Si      12.33100270      13.18206244      14.02148390      -0.11546601       0.15170932       0.00397805
5
Lattice="27.25 0.0 0.0 0.0 27.25 0.0 0.0 0.0 27.25" Properties=species:S:1:pos:R:3:forces:R:3 energy=-43.71907382401855 bias_energy=-41.658234463816115 name=displace pbc="T T T"
Si      14.57859225      12.71881876      13.08632829       0.01371090       0.10370721      -0.00588633
Si      14.27453675      13.23777232      15.40218413       0.14974326      -0.19746520       0.16906937
Si      13.97256306      15.00024842      13.78718400      -0.04129089       0.07851509       0.06954289
Si      12.97301199      13.98479187      11.84250063      -0.00670634      -0.13647090      -0.23672738
Si      12.32629595      13.18336863      14.00680295      -0.11545692       0.15171380       0.00400146
5
Lattice="27.25 0.0 0.0 0.0 27.25 0.0 0.0 0.0 27.25" Properties=species:S:1:pos:R:3:forces:R:3 energy=-43.719572638684404 bias_energy=-41.458599478290914 name=displace pbc="T T T"
Si      14.58078685      12.71808005      13.08975053       0.01370392       0.10371025      -0.00588314
Si      14.25811247      13.22844074      15.40446726       0.14976534      -0.19745857       0.16905756
Si      13.97441676      14.99945749      13.79789704      -0.04130082       0.07851496       0.06953040
Si      12.98985058      13.99592600      11.84021498      -0.00671910      -0.13648374      -0.23672781
Si      12.32183334      13.18309573      13.99267018      -0.11544934       0.15171710       0.00402300
5
Lattice="27.25 0.0 0.0 0.0 27.25 0.0 0.0 0.0 27.25" Properties=species:S:1:pos:R:3:forces:R:3 energy=-43.719506008852356 bias_energy=-41.2587814099327 name=displace pbc="T T T"
Si      14.58328279      12.71890531      13.09282109       0.01369931       0.10370944      -0.00588331
Si      14.24327097      13.21826172      15.40733417       0.14978980      -0.19744395       0.16905296
Si      13.97598146      14.99804493      13.80727887      -0.04130779       0.07850830       0.06951385
Si      13.00444156      14.00557894      11.83716969      -0.00674360      -0.13649205      -0.23673366
Si      12.31802323      13.18420910      13.98039618      -0.11543771       0.15171826       0.00405016
5
Lattice="27.25 0.0 0.0 0.0 27.25 0.0 0.0 0.0 27.25" Properties=species:S:1:pos:R:3:forces:R:3 energy=-43.71892823186466 bias_energy=-41.05876809682376 name=displace pbc="T T T"
Si      14.58596239      12.72131719      13.09592731       0.01369499       0.10371100      -0.00588104
Si      14.22961163      13.20734139      15.41043174       0.14980785      -0.19743691       0.16904518
Si      13.97742066      14.99622557      13.81539499      -0.04131513       0.07850801       0.06950244
Si      13.01664585      14.01381638      11.83331298      -0.00675543      -0.13650193      -0.23673572
Si      12.31535946      13.18629948      13.96993298      -0.11543229       0.15171983       0.00406915
5
Lattice="27.25 0.0 0.0 0.0 27.25 0.0 0.0 0.0 27.25" Properties=species:S:1:pos:R:3:forces:R:3 energy=-43.71902238577948 bias_energy=-40.858878191109454 name=displace pbc="T T T"
Si      14.58805959      12.72188435      13.09811642       0.01368999       0.10371505      -0.00587621
Si      14.21734158      13.19896648      15.41205703       0.14981895      -0.19743809       0.16903397
Si      13.97871414      14.99520797      13.82324104      -0.04132174       0.07851387       0.06949783
Si      13.02836712      14.02235522      11.83167626      -0.00675668      -0.13651320      -0.23673765
Si      12.31251758      13.18658597      13.95990926      -0.11543052       0.15172238       0.00408207
5
Lattice="27.25 0.0 0.0 0.0 27.25 0.0 0.0 0.0 27.25" Properties=species:S:1:pos:R:3:forces:R:3 energy=-43.71945842094962 bias_energy=-40.659253161774 name=displace pbc="T T T"
Si      14.58873103      12.72030873      13.09865020       0.01368756       0.10371484      -0.00587517
Si      14.20895330      13.19323840      15.41391616       0.14983415      -0.19743036       0.16902953
Si      13.97842219      14.99424341      13.83186633      -0.04132722       0.07851256       0.06948590
Si      13.04088030      14.03090595      11.83126709      -0.00676960      -0.13651990      -0.23674200
Si      12.30801318      13.18630351      13.94930023      -0.11542488       0.15172286       0.00410176
5
Lattice="27.25 0.0 0.0 0.0 27.25 0.0 0.0 0.0 27.25" Properties=species:S:1:pos:R:3:forces:R:3 energy=-43.71933538324472 bias_energy=-40.45930979336509 name=displace pbc="T T T"
Si      14.59037752      12.72128403      13.10016567       0.01368769       0.10371175      -0.00587677
Si      14.19947475      13.18576830      15.41527195       0.14985363      -0.19741168       0.16903408
Si      13.97924718      14.99315373      13.83865077      -0.04132879       0.07850445       0.06947098
Si      13.05019264      14.03759666      11.82982070      -0.00678573      -0.13652415      -0.23673611
Si      12.30570791      13.18719728      13.94109091      -0.11542680       0.15171964       0.00410782
5
Lattice="27.25 0.0 0.0 0.0 27.25 0.0 0.0 0.0 27.25" Properties=species:S:1:pos:R:3:forces:R:3 energy=-43.71938323870579 bias_energy=-40.259381543259074 name=displace pbc="T T T"
Si      14.59161278      12.72189426      13.10125664       0.01368569       0.10371264      -0.00587465
Si      14.19133769      13.17960621      15.41616206       0.14986437      -0.19740668       0.16903039
Si      13.97957465      14.99190450      13.84493791      -0.04133211       0.07850478       0.06946501
Si      13.05875456      14.04388568      11.82912647      -0.00679265      -0.13653097      -0.23673922
Si      12.30372032      13.18770935      13.93351692      -0.11542530       0.15172023       0.00411846
5
Lattice="27.25 0.0 0.0 0.0 27.25 0.0 0.0 0.0 27.25" Properties=species:S:1:pos:R:3:forces:R:3 energy=-43.71911168536403 bias_energy=-40.05936485216372 name=displace pbc="T T T"
Si      14.59280628      12.72358370      13.10250995       0.01368423       0.10371273      -0.00587344
Si      14.18409529      13.17332490      15.41755461       0.14987603      -0.19739947       0.16902847
Si      13.98025413      14.99074325      13.85056298      -0.04133438       0.07850367       0.06945728
Si      13.06535315      14.04882903      11.82784366      -0.00680189      -0.13653688      -0.23674202
Si      12.30249115      13.18851911      13.92652880      -0.11542399       0.15171995       0.00412971
5
Lattice="27.25 0.0 0.0 0.0 27.25 0.0 0.0 0.0 27.25" Properties=species:S:1:pos:R:3:forces:R:3 energy=-43.721387981818154 bias_energy=0 name=displace pbc="T T T"
Si      14.59027198      12.71360616      13.10209004      -0.05674806       0.08886042       0.05070995
Si      14.18074287      13.18475517      15.41339797       0.20432358      -0.18793413       0.11372175
Si      13.98021588      14.98832398      13.84673794      -0.10517367       0.09687456       0.07621965
Si      13.06850735      14.06103936      11.83528190       0.06048320      -0.12702248      -0.19413299
Si      12.30526192      13.17727533      13.92749216      -0.10288505       0.12922162      -0.04651836
