5
Lattice="27.25 0.0 0.0 0.0 27.25 0.0 0.0 0.0 27.25" Properties=species:S:1:pos:R:3:forces:R:3 energy=-41.25032218824286 bias_energy=0 name=displace pbc="T T T"
Si      13.29940881      12.09395062      12.98325002       0.15538091      -0.04760553      -0.25217154
Si      14.38309015      15.82037098      13.59851075      -0.16499991      -0.00127504       0.23091384
Si      13.93597459      14.24235174      12.08158699      -0.06781653       0.01446637       0.15964891
Si      13.28372205      11.96678244      15.21459044       0.09668477       0.01874207      -0.08993583
Si      13.22280441      14.00154423      14.24706180      -0.01924925       0.01567212      -0.04845539
5
Lattice="27.25 0.0 0.0 0.0 27.25 0.0 0.0 0.0 27.25" Properties=species:S:1:pos:R:3:forces:R:3 energy=-41.25025209268991 bias_energy=-41.245014838584396 name=displace pbc="T T T"
Si      14.46468767      12.81933238      12.38942876       0.17306380      -0.03651909      -0.22772372
Si      12.87863357      15.46020505      14.83570513      -0.17687953       0.02355214       0.24116163
Si      13.82232604      15.11512232      12.83995055      -0.05220965       0.05504213       0.13300870
Si      14.01117109      11.37219251      14.03544638       0.10637022      -0.01327551      -0.11646631
Si      12.94818163      13.35814774      14.02446918      -0.05034484      -0.02879967      -0.02998029
5
Lattice="27.25 0.0 0.0 0.0 27.25 0.0 0.0 0.0 27.25" Properties=species:S:1:pos:R:3:forces:R:3 energy=-41.24999939654961 bias_energy=-41.05451698034216 name=displace pbc="T T T"
Si      14.51615920      12.96469588      12.34434590       0.17012866      -0.03171083      -0.23158444
Si      12.74711290      15.32368494      14.95396078      -0.17943851       0.00657304       0.24033022
Si      13.77518860      15.17824232      12.97670790      -0.05993307       0.05263690       0.15178192
Si      14.12573121      11.36505096      13.85344520       0.11151576      -0.00471420      -0.12185057
Si      12.96080809      13.29332590      13.99654021      -0.04227284      -0.02278491      -0.03867713
5
Lattice="27.25 0.0 0.0 0.0 27.25 0.0 0.0 0.0 27.25" Properties=species:S:1:pos:R:3:forces:R:3 energy=-41.246703546057674 bias_energy=-41.12466257820674 name=displace pbc="T T T"
Si      14.64418968      14.41665289      12.50566915       0.16985564      -0.03134488      -0.23229119
Si      12.22940045      13.43199594      15.48749374      -0.17963440       0.00467147       0.24022835
Si      13.21223656      15.08854078      14.36345154      -0.06099752       0.05195412       0.15429731
Si      14.91087715      12.20679298      12.30459249       0.11217607      -0.00353741      -0.12254100
Si      13.12829616      12.98101741      13.46379308      -0.04139979      -0.02174331      -0.03969346
5
Lattice="27.25 0.0 0.0 0.0 27.25 0.0 0.0 0.0 27.25" Properties=species:S:1:pos:R:3:forces:R:3 energy=-41.247485604800445 bias_energy=-40.92551551730727 name=displace pbc="T T T"
Si      14.64720093      14.42507886      12.52051560       0.17020530      -0.03233306      -0.23327367
Si      12.23559820      13.41873219      15.49024702      -0.17961059       0.00589085       0.24021935
Si      13.22508223      15.08107357      14.38359564      -0.06112446       0.05100599       0.15447462
Si      14.89188497      12.21577970      12.27308131       0.11212284      -0.00352555      -0.12237664
Si      13.12523367      12.98433567      13.45756044      -0.04159308      -0.02103823      -0.03904366
5
Lattice="27.25 0.0 0.0 0.0 27.25 0.0 0.0 0.0 27.25" Properties=species:S:1:pos:R:3:forces:R:3 energy=-41.24744106158367 bias_energy=-40.72608063033519 name=displace pbc="T T T"
Si      14.65122052      14.43215319      12.52827587       0.17018527      -0.03232556      -0.23324320
Si      12.23952852      13.40344773      15.49147458      -0.17961324       0.00591279       0.24021683
Si      13.24167633      15.07302013      14.40568401      -0.06111506       0.05099037       0.15442461
Si      14.87528052      12.22441298      12.24931991       0.11211657      -0.00353262      -0.12236176
Si      13.11729411      12.99196597      13.45024563      -0.04157354      -0.02104497      -0.03903648
5
Lattice="27.25 0.0 0.0 0.0 27.25 0.0 0.0 0.0 27.25" Properties=species:S:1:pos:R:3:forces:R:3 energy=-41.24731930160786 bias_energy=-40.5265642574094 name=displace pbc="T T T"
Si      14.65560863      14.43729521      12.53647551       0.17019106      -0.03232751      -0.23324894
Si      12.24120040      13.39033446      15.49136071      -0.17961660       0.00592902       0.24021391
Si      13.25870463      15.06562766      14.42785788      -0.06112792       0.05098498       0.15440303
Si      14.85870649      12.23213499      12.22644920       0.11212581      -0.00353870      -0.12235818
Si      13.11077985      12.99960768      13.44285670      -0.04157235      -0.02104780      -0.03900983
5
Lattice="27.25 0.0 0.0 0.0 27.25 0.0 0.0 0.0 27.25" Properties=species:S:1:pos:R:3:forces:R:3 energy=-41.247091335452424 bias_energy=-40.32696913146337 name=displace pbc="T T T"
Si      14.66114766      14.44132911      12.54461829       0.17018988      -0.03233229      -0.23325121
Si      12.24126940      13.37851095      15.49042928      -0.17961629       0.00594545       0.24021374
Si      13.27630685      15.05828107      14.44944895      -0.06114203       0.05098181       0.15438379
Si      14.84222722      12.23890491      12.20497145       0.11213094      -0.00354349      -0.12235167
Si      13.10404887      13.00797397      13.43553204      -0.04156250      -0.02105148      -0.03899465
5
Lattice="27.25 0.0 0.0 0.0 27.25 0.0 0.0 0.0 27.25" Properties=species:S:1:pos:R:3:forces:R:3 energy=-41.24708084034372 bias_energy=-40.12739226633047 name=displace pbc="T T T"
Si      14.66788940      14.44441648      12.55428996       0.17018845      -0.03233763      -0.23325532
Si      12.24088059      13.36918109      15.48840251      -0.17961415       0.00596003       0.24021498
Si      13.29379128      15.05059941      14.47054897      -0.06115773       0.05098014       0.15436720
Si      14.82491697      12.24510930      12.18423262       0.11213676      -0.00354711      -0.12234650
Si      13.09752176      13.01569371      13.42752594      -0.04155334      -0.02105543      -0.03898037
5
Lattice="27.25 0.0 0.0 0.0 27.25 0.0 0.0 0.0 27.25" Properties=species:S:1:pos:R:3:forces:R:3 energy=-41.24710178338518 bias_energy=-39.927745992015666 name=displace pbc="T T T"
Si      14.67541859      14.44647810      12.56397252       0.17018430      -0.03234019      -0.23325711
Si      12.23931298      13.36049601      15.48550779      -0.17961019       0.00597600       0.24021754
Si      13.31239943      15.04265911      14.49075321      -0.06117362       0.05097704       0.15435058
Si      14.80744806      12.25069647      12.16502705       0.11213799      -0.00355017      -0.12233948
Si      13.09042094      13.02467031      13.41973943      -0.04153848      -0.02106269      -0.03897153
5
Lattice="27.25 0.0 0.0 0.0 27.25 0.0 0.0 0.0 27.25" Properties=species:S:1:pos:R:3:forces:R:3 energy=-41.2465795405398 bias_energy=-39.72802583209001 name=displace pbc="T T T"
Si      14.68497891      14.44804187      12.57228007       0.17017899      -0.03234243      -0.23325883
Si      12.23561709      13.35234173      15.48303394      -0.17960552       0.00598872       0.24022072
Si      13.33153080      15.03496910      14.51092119      -0.06118874       0.05097509       0.15433222
Si      14.79041880      12.25513225      12.14621815       0.11214153      -0.00355310      -0.12233481
Si      13.08245440      13.03451504      13.41254665      -0.04152627      -0.02106828      -0.03895930
5
Lattice="27.25 0.0 0.0 0.0 27.25 0.0 0.0 0.0 27.25" Properties=species:S:1:pos:R:3:forces:R:3 energy=-41.24656599926258 bias_energy=-39.5281793432783 name=displace pbc="T T T"
Si      14.69445256      14.44930016      12.57986847       0.17018131      -0.03234570      -0.23326970
Si      12.23210482      13.34414825      15.47743355      -0.17959965       0.00599783       0.24022488
Si      13.35163761      15.02574355      14.53104762      -0.06120799       0.05097756       0.15432363
Si      14.77132793      12.25880675      12.13130065       0.11214879      -0.00355298      -0.12233351
Si      13.07547709      13.04700128      13.40534972      -0.04152246      -0.02107671      -0.03894530
5
Lattice="27.25 0.0 0.0 0.0 27.25 0.0 0.0 0.0 27.25" Properties=species:S:1:pos:R:3:forces:R:3 energy=-41.24640725007451 bias_energy=-39.328732199620205 name=displace pbc="T T T"
Si      14.70702342      14.44691265      12.59318257       0.17018739      -0.03235517      -0.23328898
Si      12.22771833      13.34268536      15.47601812      -0.17959357       0.00600887       0.24022915
Si      13.37042825      15.01567416      14.54913307      -0.06123332       0.05097872       0.15431865
Si      14.75313015      12.26552062      12.11076684       0.11215751      -0.00355111      -0.12233338
Si      13.06669985      13.05420721      13.39589940      -0.04151801      -0.02108132      -0.03892543
5
Lattice="27.25 0.0 0.0 0.0 27.25 0.0 0.0 0.0 27.25" Properties=species:S:1:pos:R:3:forces:R:3 energy=-41.24605819254634 bias_energy=-39.128979742473156 name=displace pbc="T T T"
Si      14.71963942      14.44559916      12.60273617       0.17017061      -0.03234095      -0.23327473
Si      12.22190927      13.33836722      15.47121928      -0.17958279       0.00602014       0.24023692
Si      13.39142120      15.00596497      14.56911249      -0.06124516       0.05097166       0.15429581
Si      14.73366253      12.26912197      12.09392711       0.11215005      -0.00355789      -0.12232474
Si      13.05836759      13.06594667      13.38800495      -0.04149270      -0.02109295      -0.03893325
5
Lattice="27.25 0.0 0.0 0.0 27.25 0.0 0.0 0.0 27.25" Properties=species:S:1:pos:R:3:forces:R:3 energy=-41.245720619134055 bias_energy=-38.929161371274176 name=displace pbc="T T T"
Si      14.73230290      14.44237183      12.61400810       0.17017288      -0.03234254      -0.23328827
Si      12.21470072      13.33664204      15.46690927      -0.17957402       0.00602790       0.24024329
Si      13.41438657      14.99419094      14.58820431      -0.06126783       0.05097410       0.15429125
Si      14.71411445      12.27349937      12.07645393       0.11215531      -0.00355645      -0.12232404
Si      13.04949536      13.07829582      13.37942439      -0.04148634      -0.02110301      -0.03892223
5
Lattice="27.25 0.0 0.0 0.0 27.25 0.0 0.0 0.0 27.25" Properties=species:S:1:pos:R:3:forces:R:3 energy=-41.2452564055239 bias_energy=-38.72948381981591 name=displace pbc="T T T"
Si      14.74488031      14.43413929      12.62607169       0.17015985      -0.03233926      -0.23328373
Si      12.20605887      13.33590875      15.46149707      -0.17956277       0.00603429       0.24025153
Si      13.43874074      14.98466926      14.60918256      -0.06128385       0.05097178       0.15427219
Si      14.69441239      12.27766419      12.05558743       0.11215795      -0.00355836      -0.12232180
Si      13.04090769      13.09261851      13.37266126      -0.04147118      -0.02110845      -0.03891819
5
Lattice="27.25 0.0 0.0 0.0 27.25 0.0 0.0 0.0 27.25" Properties=species:S:1:pos:R:3:forces:R:3 energy=-41.244234018320874 bias_energy=-38.529299485394034 name=displace pbc="T T T"
Si      14.75794649      14.42952051      12.63386924       0.17014741      -0.03233687      -0.23328630
Si      12.19592191      13.33686300      15.45447033      -0.17955424       0.00603503       0.24025789
Si      13.46851613      14.97022534      14.63332570      -0.06130001       0.05097684       0.15426280
Si      14.67237597      12.27989928      12.03952804       0.11216912      -0.00356694      -0.12232764
Si      13.03023949      13.10849186      13.36380670      -0.04146228      -0.02110806      -0.03890675
5
Lattice="27.25 0.0 0.0 0.0 27.25 0.0 0.0 0.0 27.25" Properties=species:S:1:pos:R:3:forces:R:3 energy=-41.24370917018898 bias_energy=-38.32916975970276 name=displace pbc="T T T"
Si      14.77302323      14.42273547      12.64442423       0.17014698      -0.03234015      -0.23330183
Si      12.18585202      13.33857309      15.44610172      -0.17954372       0.00603815       0.24026567
Si      13.50132349      14.95540593      14.65806798      -0.06132621       0.05098429       0.15426414
Si      14.64610449      12.28101405      12.02192971       0.11217891      -0.00356482      -0.12233030
Si      13.01869676      13.12727145      13.35447636      -0.04145595      -0.02111748      -0.03889768
5
Lattice="27.25 0.0 0.0 0.0 27.25 0.0 0.0 0.0 27.25" Properties=species:S:1:pos:R:3:forces:R:3 energy=-41.24858376812716 bias_energy=-38.132407895012655 name=displace pbc="T T T"
Si      14.82762973      14.39295018      12.69341801       0.17014097      -0.03234256      -0.23331333
Si      12.19862607      13.32790668      15.44590526      -0.17953317       0.00603829       0.24027355
Si      13.50379637      14.96307436      14.66272397      -0.06134989       0.05099495       0.15425576
Si      14.58906970      12.28843591      11.98040179       0.11218984      -0.00356178      -0.12233235
Si      13.00587812      13.15263287      13.34255097      -0.04144776      -0.02112890      -0.03888363
5
Lattice="27.25 0.0 0.0 0.0 27.25 0.0 0.0 0.0 27.25" Properties=species:S:1:pos:R:3:forces:R:3 energy=-41.24814411856659 bias_energy=-37.93310793326192 name=displace pbc="T T T"
Si      14.85489846      14.37296727      12.71400762       0.17014503      -0.03230090      -0.23331403
Si      12.18575476      13.33255813      15.43955157      -0.17952605       0.00603768       0.24027889
Si      13.54310395      14.93932585      14.69417905      -0.06136637       0.05098335       0.15419072
Si      14.54903290      12.30021624      11.94776556       0.11216354      -0.00355649      -0.12231081
Si      12.99220993      13.17993251      13.32949620      -0.04141615      -0.02116364      -0.03884477
5
Lattice="27.25 0.0 0.0 0.0 27.25 0.0 0.0 0.0 27.25" Properties=species:S:1:pos:R:3:forces:R:3 energy=-41.072188745680364 bias_energy=-37.69405264179396 name=displace pbc="T T T"
Si      14.94175605      14.35387934      12.49131159       0.17012924      -0.03229088      -0.23330910
Si      12.12167539      13.28852508      15.45825789      -0.17950693       0.00604075       0.24029309
Si      13.47743139      14.93848422      14.88420532      -0.06139643       0.05098662       0.15417610
Si      14.55256361      12.25435296      11.95989757       0.11216495      -0.00356164      -0.12230992
Si      13.03157357      13.28975840      13.33132763      -0.04139082      -0.02117485      -0.03885018
5
Lattice="27.25 0.0 0.0 0.0 27.25 0.0 0.0 0.0 27.25" Properties=species:S:1:pos:R:3:forces:R:3 energy=-41.24967435840582 bias_energy=0 name=displace pbc="T T T"
Si      14.85378469      14.37828703      12.72800440       0.15538091      -0.04760553      -0.25217154
Si      12.17794037      13.33250331      15.42364831      -0.16499991      -0.00127504       0.23091384
Si      13.57377449      14.91887263      14.70453781      -0.06781653       0.01446637       0.15964891
Si      14.53491655      12.30704352      11.94441787       0.09668477       0.01874207      -0.08993583
Si      12.98458389      13.18829352      13.32439159      -0.01924925       0.01567212      -0.04845539
