5
Lattice="27.25 0.0 0.0 0.0 27.25 0.0 0.0 0.0 27.25" Properties=species:S:1:pos:R:3:forces:R:3 energy=-41.24967435840583 bias_energy=0 name=displace pbc="T T T"
Si      14.85378469      14.37828703      12.72800440       0.02649273      -0.12124910      -0.18572575
Si      12.17794037      13.33250331      15.42364831       0.01853057       0.19541527       0.22686888
Si      13.57377449      14.91887263      14.70453781       0.05525423      -0.13744344      -0.01184017
Si      14.53491655      12.30704352      11.94441787      -0.12030474      -0.00818630       0.02864748
Si      12.98458389      13.18829352      13.32439159       0.02002720       0.07146357      -0.05795044
5
Lattice="27.25 0.0 0.0 0.0 27.25 0.0 0.0 0.0 27.25" Properties=species:S:1:pos:R:3:forces:R:3 energy=-41.24995257866372 bias_energy=-41.24353484228397 name=displace pbc="T T T"
Si      14.45833408      13.12222538      12.23481630       0.01996864      -0.11843612      -0.19662534
Si      13.37284885      14.63134081      15.70370057       0.04230950       0.21500852       0.20489324
Si      14.89908762      14.65605519      14.06983282       0.11353371      -0.10658898      -0.01046267
Si      12.58313646      11.92749249      12.42891956      -0.14636663      -0.06596192       0.00154872
Si      12.81159299      13.78788613      13.68773075      -0.02944522       0.07597850       0.00064605
5
Lattice="27.25 0.0 0.0 0.0 27.25 0.0 0.0 0.0 27.25" Properties=species:S:1:pos:R:3:forces:R:3 energy=-41.25006744657026 bias_energy=0 name=displace pbc="T T T"
Si      14.45837619      13.12279617      12.23535022       0.02649273      -0.12124910      -0.18572575
Si      13.37296496      14.63142442      15.70324362       0.01853057       0.19541527       0.22686888
Si      14.89873654      14.65563612      14.06966147       0.05525423      -0.13744344      -0.01184017
Si      12.58299396      11.92785072      12.42912502      -0.12030474      -0.00818630       0.02864748
Si      12.81192835      13.78729258      13.68761968       0.02002720       0.07146357      -0.05795044
