5
Lattice="27.25 0.0 0.0 0.0 27.25 0.0 0.0 0.0 27.25" Properties=species:S:1:pos:R:3:forces:R:3 energy=-43.72151180058781 bias_energy=0 name=displace pbc="T T T"
Si      12.74072632      13.90833703      12.54193237       0.16717195       0.04081627      -0.05854473
Si      12.95240935      11.82253785      13.70253864      -0.15216057      -0.13356425       0.11221894
Si      14.93556718      13.12549353      13.36383328       0.11614434      -0.02238648      -0.02437319
Si      14.29686117      15.42715551      13.54736691      -0.27549894       0.10536406      -0.05476081
Si      13.19943597      13.84147609      14.96932879       0.14434323       0.00977039       0.02545980
5
Lattice="27.25 0.0 0.0 0.0 27.25 0.0 0.0 0.0 27.25" Properties=species:S:1:pos:R:3:forces:R:3 energy=-43.7214069144626 bias_energy=-43.521888755030396 name=displace pbc="T T T"
Si      12.72280117      13.83486094      12.54261915       0.15028378      -0.03600689      -0.07031472
Si      13.02659342      11.80175682      13.77049082      -0.11607891      -0.06004688       0.11786724
Si      14.95239801      13.17155485      13.36417878       0.07747856      -0.00334540      -0.01117754
Si      14.21927465      15.45090989      13.48292670      -0.27168532       0.11175305      -0.06081402
Si      13.20393275      13.86591750      14.96478455       0.16000189      -0.01235387       0.02443905
5
Lattice="27.25 0.0 0.0 0.0 27.25 0.0 0.0 0.0 27.25" Properties=species:S:1:pos:R:3:forces:R:3 energy=-43.72121269526851 bias_energy=-43.323646625614536 name=displace pbc="T T T"
Si      12.70654861      13.75979386      12.54541929       0.15102473      -0.03555561      -0.06981734
Si      13.10411738      11.78427847      13.83762670      -0.11649719      -0.06006932       0.11743760
Si      14.96831849      13.22007051      13.36484312       0.07730409      -0.00300973      -0.01112314
Si      14.13692138      15.46923106      13.41594364      -0.27226651       0.11040492      -0.06067700
Si      13.20909413      13.89162610      14.96116725       0.16043489      -0.01177026       0.02417989
5
Lattice="27.25 0.0 0.0 0.0 27.25 0.0 0.0 0.0 27.25" Properties=species:S:1:pos:R:3:forces:R:3 energy=-43.72101129526 bias_energy=-43.12791500925812 name=displace pbc="T T T"
Si      12.69170281      13.68098056      12.55011028       0.15113275      -0.03547576      -0.06983304
Si      13.18729290      11.77011209      13.90651821      -0.11657580      -0.06013545       0.11743548
Si      14.98282527      13.27045678      13.36410638       0.07728560      -0.00296267      -0.01115687
Si      14.04937377      15.48429844      13.34753894      -0.27233245       0.11027453      -0.06061820
Si      13.21380526      13.91915213      14.95672620       0.16048989      -0.01170065       0.02417262
5
Lattice="27.25 0.0 0.0 0.0 27.25 0.0 0.0 0.0 27.25" Properties=species:S:1:pos:R:3:forces:R:3 energy=-43.71962347946794 bias_energy=-42.93541654101556 name=displace pbc="T T T"
Si      12.68476370      13.59882243      12.55764309       0.15117626      -0.03541503      -0.06985110
Si      13.27125958      11.76312401      13.97818790      -0.11660388      -0.06016895       0.11744432
Si      14.99640605      13.32510186      13.35995403       0.07727629      -0.00297924      -0.01117464
Si      13.95261783      15.49272275      13.27776955      -0.27235350       0.11024026      -0.06058593
Si      13.21995284      13.94522894      14.95144543       0.16050483      -0.01167705       0.02416735
5
Lattice="27.25 0.0 0.0 0.0 27.25 0.0 0.0 0.0 27.25" Properties=species:S:1:pos:R:3:forces:R:3 energy=-43.70070760240013 bias_energy=-42.95939645800397 name=displace pbc="T T T"
Si      13.06466395      12.46729745      13.01783348       0.15118955      -0.03540059      -0.06987170
Si      14.64908937      12.49118253      14.80788089      -0.11662246      -0.06019018       0.11745849
Si      14.82263667      14.16748740      13.05676804       0.07728178      -0.00297819      -0.01118211
Si      12.52537193      14.74174109      12.48023727      -0.27236029       0.11023520      -0.06056460
Si      13.06323808      14.25729153      14.76228032       0.16051143      -0.01166624       0.02415993
5
Lattice="27.25 0.0 0.0 0.0 27.25 0.0 0.0 0.0 27.25" Properties=species:S:1:pos:R:3:forces:R:3 energy=-43.69961637044463 bias_energy=-42.76094594571647 name=displace pbc="T T T"
Si      13.07437192      12.47228857      13.00108995       0.15132817      -0.03506796      -0.07019975
Si      14.64995479      12.47787930      14.79537816      -0.11681440      -0.06056453       0.11771680
Si      14.82288290      14.18486177      13.06991110       0.07731911      -0.00313540      -0.01127237
Si      12.52204990      14.75067538      12.48978840      -0.27237110       0.11036483      -0.06027926
Si      13.05574049      14.23929498      14.76883239       0.16053821      -0.01159694       0.02403458
5
Lattice="27.25 0.0 0.0 0.0 27.25 0.0 0.0 0.0 27.25" Properties=species:S:1:pos:R:3:forces:R:3 energy=-43.69950137843834 bias_energy=-42.562449944897544 name=displace pbc="T T T"
Si      13.08428760      12.47735873      12.98298029       0.15132967      -0.03506342      -0.07019361
Si      14.65178502      12.46863381      14.78472052      -0.11681449      -0.06056330       0.11771726
Si      14.82169222      14.19930980      13.08262765       0.07731983      -0.00313903      -0.01127576
Si      12.52018934      14.75951604      12.50020691      -0.27237133       0.11036071      -0.06028577
Si      13.04704583      14.22018162      14.77446462       0.16053632      -0.01159497       0.02403789
5
Lattice="27.25 0.0 0.0 0.0 27.25 0.0 0.0 0.0 27.25" Properties=species:S:1:pos:R:3:forces:R:3 energy=-43.699230777014925 bias_energy=-42.36384483831965 name=displace pbc="T T T"
Si      13.09480444      12.48228907      12.96545621       0.15133169      -0.03505899      -0.07018804
Si      14.65360457      12.46023363      14.77483857      -0.11681427      -0.06056377       0.11771821
Si      14.82041173      14.21374522      13.09571436       0.07732002      -0.00314135      -0.01127902
Si      12.51805079      14.76718481      12.50966095      -0.27237224       0.11035556      -0.06029108
Si      13.03812847      14.20154726      14.77932990       0.16053480      -0.01159145       0.02403993
5
Lattice="27.25 0.0 0.0 0.0 27.25 0.0 0.0 0.0 27.25" Properties=species:S:1:pos:R:3:forces:R:3 energy=-43.69893873229196 bias_energy=-42.165164090203476 name=displace pbc="T T T"
Si      13.10587906      12.48703938      12.94843358       0.15133345      -0.03505461      -0.07018255
Si      14.65549156      12.45279929      14.76576318      -0.11681404      -0.06056413       0.11771892
Si      14.81898412      14.22803681      13.10899665       0.07732047      -0.00314390      -0.01128244
Si      12.51582372      14.77390982      12.51834900      -0.27237299       0.11035093      -0.06029615
Si      13.02882153      14.18321470      14.78345758       0.16053310      -0.01158829       0.02404222
5
Lattice="27.25 0.0 0.0 0.0 27.25 0.0 0.0 0.0 27.25" Properties=species:S:1:pos:R:3:forces:R:3 energy=-43.69991474531109 bias_energy=-41.966593936748 name=displace pbc="T T T"
Si      13.11697060      12.49141788      12.93200970       0.15133506      -0.03505034      -0.07017713
Si      14.65813279      12.44744941      14.75628948      -0.11681377      -0.06056453       0.11771951
Si      14.81873593      14.24242949      13.12245001       0.07732100      -0.00314650      -0.01128601
Si      12.51395734      14.77963258      12.52805287      -0.27237362       0.11034677      -0.06030092
Si      13.01720334      14.16407065      14.78619794       0.16053133      -0.01158540       0.02404455
5
Lattice="27.25 0.0 0.0 0.0 27.25 0.0 0.0 0.0 27.25" Properties=species:S:1:pos:R:3:forces:R:3 energy=-43.69954768379117 bias_energy=-41.76785384747632 name=displace pbc="T T T"
Si      13.12961169      12.49590763      12.91554604       0.15133640      -0.03504418      -0.07017154
Si      14.66041114      12.44172448      14.74845490      -0.11681184      -0.06056577       0.11772070
Si      14.81686881      14.25720704      13.13644600       0.07732118      -0.00315014      -0.01128891
Si      12.51112509      14.78441349      12.53557420      -0.27237472       0.11034228      -0.06030418
Si      13.00698328      14.14574737      14.78897886       0.16052899      -0.01158219       0.02404393
5
Lattice="27.25 0.0 0.0 0.0 27.25 0.0 0.0 0.0 27.25" Properties=species:S:1:pos:R:3:forces:R:3 energy=-43.69920992987761 bias_energy=-41.56907731721519 name=displace pbc="T T T"
Si      13.14276858      12.50026614      12.89953278       0.15133767      -0.03503979      -0.07016615
Si      14.66273256      12.43690175      14.74137990      -0.11681151      -0.06056630       0.11772124
Si      14.81482616      14.27181855      13.15061998       0.07732199      -0.00315303      -0.01129289
Si      12.50829221      14.78842482      12.54240277      -0.27237515       0.11033889      -0.06030842
Si      12.99638050      14.12758873      14.79106456       0.16052701      -0.01157976       0.02404622
5
Lattice="27.25 0.0 0.0 0.0 27.25 0.0 0.0 0.0 27.25" Properties=species:S:1:pos:R:3:forces:R:3 energy=-43.69885058784412 bias_energy=-41.37026707790908 name=displace pbc="T T T"
Si      13.15646116      12.50452728      12.88394489       0.15133877      -0.03503548      -0.07016081
Si      14.66507566      12.43282545      14.73501807      -0.11681109      -0.06056690       0.11772168
Si      14.81258985      14.28635057      13.16502110       0.07732287      -0.00315594      -0.01129694
Si      12.50539519      14.79166259      12.54852560      -0.27237550       0.11033589      -0.06031234
Si      12.98547815      14.10963411      14.79249035       0.16052495      -0.01157757       0.02404841
5
Lattice="27.25 0.0 0.0 0.0 27.25 0.0 0.0 0.0 27.25" Properties=species:S:1:pos:R:3:forces:R:3 energy=-43.698475144318365 bias_energy=-41.17143195972061 name=displace pbc="T T T"
Si      13.17068199      12.50871292      12.86875551       0.15133968      -0.03503125      -0.07015552
Si      14.66743804      12.42944907      14.72933231      -0.11681063      -0.06056749       0.11772202
Si      14.81014061      14.30081737      13.17964581       0.07732387      -0.00315888      -0.01130109
Si      12.50244458      14.79417964      12.55398293      -0.27237576       0.11033327      -0.06031595
Si      12.97429478      14.09184100      14.79328344       0.16052284      -0.01157565       0.02405055
5
Lattice="27.25 0.0 0.0 0.0 27.25 0.0 0.0 0.0 27.25" Properties=species:S:1:pos:R:3:forces:R:3 energy=-43.69808430796057 bias_energy=-40.972578927241095 name=displace pbc="T T T"
Si      13.18542496      12.51284648      12.85394130       0.15134042      -0.03502709      -0.07015029
Si      14.66981224      12.42672370      14.72428379      -0.11681013      -0.06056808       0.11772226
Si      14.80746110      14.31523458      13.19449716       0.07732498      -0.00316184      -0.01130532
Si      12.49944633      14.79602031      12.55880895      -0.27237595       0.11033099      -0.06031927
Si      12.96285537      14.07417493      14.79346880       0.16052068      -0.01157399       0.02405262
5
Lattice="27.25 0.0 0.0 0.0 27.25 0.0 0.0 0.0 27.25" Properties=species:S:1:pos:R:3:forces:R:3 energy=-43.699008239435464 bias_energy=-40.77386057538055 name=displace pbc="T T T"
Si      13.20042738      12.51670233      12.83965715       0.15134098      -0.03502301      -0.07014510
Si      14.67272861      12.42667233      14.71872644      -0.11680959      -0.06056866       0.11772243
Si      14.80479464      14.32931381      13.20983347       0.07732622      -0.00316480      -0.01130963
Si      12.49720649      14.79731529      12.56428469      -0.27237607       0.11032904      -0.06032230
Si      12.94984289      14.05499624      14.79249825       0.16051847      -0.01157257       0.02405460
5
Lattice="27.25 0.0 0.0 0.0 27.25 0.0 0.0 0.0 27.25" Properties=species:S:1:pos:R:3:forces:R:3 energy=-43.69854325054368 bias_energy=-40.57503812565084 name=displace pbc="T T T"
Si      13.21677962      12.52077102      12.82516253       0.15134130      -0.03501760      -0.07013960
Si      14.67537325      12.42540114      14.71463767      -0.11680721      -0.06057050       0.11772333
Si      14.80135616      14.34422090      13.22550123       0.07732705      -0.00316853      -0.01131377
Si      12.49371566      14.79769235      12.56809484      -0.27237641       0.11032691      -0.06032466
Si      12.93777531      14.03691458      14.79160372       0.16051527      -0.01157029       0.02405471
5
Lattice="27.25 0.0 0.0 0.0 27.25 0.0 0.0 0.0 27.25" Properties=species:S:1:pos:R:3:forces:R:3 energy=-43.69787061052987 bias_energy=-40.376191585317926 name=displace pbc="T T T"
Si      13.23363729      12.52495772      12.81089842       0.15134140      -0.03501356      -0.07013441
Si      14.67789444      12.42418328      14.71141089      -0.11680644      -0.06057120       0.11772343
Si      14.79761136      14.35909650      13.24129201       0.07732861      -0.00317169      -0.01131827
Si      12.49019106      14.79752131      12.57117792      -0.27237632       0.11032565      -0.06032737
Si      12.92566584      14.01924119      14.79022077       0.16051275      -0.01156920       0.02405663
5
Lattice="27.25 0.0 0.0 0.0 27.25 0.0 0.0 0.0 27.25" Properties=species:S:1:pos:R:3:forces:R:3 energy=-43.69715653025614 bias_energy=-40.17733614500065 name=displace pbc="T T T"
Si      13.25089433      12.52916738      12.79697791       0.15134143      -0.03500985      -0.07012940
Si      14.68026469      12.42345498      14.70872687      -0.11680611      -0.06057166       0.11772339
Si      14.79365582      14.37377596      13.25728612       0.07733030      -0.00317456      -0.01132289
Si      12.48674985      14.79695388      12.57369291      -0.27237620       0.11032463      -0.06032977
Si      12.91343531      14.00164779      14.78831619       0.16051059      -0.01156857       0.02405868
5
Lattice="27.25 0.0 0.0 0.0 27.25 0.0 0.0 0.0 27.25" Properties=species:S:1:pos:R:3:forces:R:3 energy=-43.69645831707356 bias_energy=-39.97847854636241 name=displace pbc="T T T"
Si      13.26854579      12.53343723      12.78339080       0.15134124      -0.03500635      -0.07012441
Si      14.68250010      12.42322712      14.70648366      -0.11680565      -0.06057206       0.11772319
Si      14.78945804      14.38829426      13.27350113       0.07733209      -0.00317738      -0.01132742
Si      12.48341800      14.79596028      12.57573741      -0.27237601       0.11032390      -0.06033199
Si      12.90107806      13.98408112      14.78588700       0.16050833      -0.01156811       0.02406062
5
Lattice="27.25 0.0 0.0 0.0 27.25 0.0 0.0 0.0 27.25" Properties=species:S:1:pos:R:3:forces:R:3 energy=-43.72139884830992 bias_energy=0 name=displace pbc="T T T"
Si      13.22947228      12.52391534      12.80813254       0.16717195       0.04081627      -0.05854473
Si      14.71759274      12.44647759      14.68143986      -0.15216057      -0.13356425       0.11221894
Si      14.78101247      14.38849347      13.28265356       0.11614434      -0.02238648      -0.02437319
Si      12.53031219      14.80360916      12.56700194      -0.27549894       0.10536406      -0.05476081
Si      12.86661032      13.96250445      14.78577210       0.14434323       0.00977039       0.02545980
