5
Lattice="27.25 0.0 0.0 0.0 27.25 0.0 0.0 0.0 27.25" Properties=species:S:1:pos:R:3:forces:R:3 energy=-43.72139884830992 bias_energy=0 name=displace pbc="T T T"
Si      13.22947228      12.52391534      12.80813254       0.04320367       0.01935314       0.06966511
Si      14.71759274      12.44647759      14.68143986      -0.28083419       0.08961888       0.05568319
Si      14.78101247      14.38849347      13.28265356       0.05436250       0.00462758       0.03213953
Si      12.53031219      14.80360916      12.56700194       0.14009555      -0.13724555      -0.20887018
Si      12.86661032      13.96250445      14.78577210       0.04317247       0.02364595       0.05138236
5
Lattice="27.25 0.0 0.0 0.0 27.25 0.0 0.0 0.0 27.25" Properties=species:S:1:pos:R:3:forces:R:3 energy=-43.72148988749107 bias_energy=-43.53341607819832 name=displace pbc="T T T"
Si      13.25447954      12.47940509      12.86255482       0.03711059      -0.01083565       0.05615414
Si      14.57035350      12.49511991      14.86495413      -0.24534480       0.05289311       0.11859145
Si      14.83804823      14.31651429      13.32904720       0.06189256      -0.00560878       0.04843566
Si      12.67822733      14.75378468      12.38512438       0.14869404      -0.12846364      -0.22668740
Si      12.78389140      14.08017602      14.68331947      -0.00235239       0.09201496       0.00350614
5
Lattice="27.25 0.0 0.0 0.0 27.25 0.0 0.0 0.0 27.25" Properties=species:S:1:pos:R:3:forces:R:3 energy=-43.72148988749107 bias_energy=0 name=displace pbc="T T T"
Si      13.25447954      12.47940509      12.86255482       0.04320367       0.01935314       0.06966511
Si      14.57035350      12.49511991      14.86495413      -0.28083419       0.08961888       0.05568319
Si      14.83804823      14.31651429      13.32904720       0.05436250       0.00462758       0.03213953
Si      12.67822733      14.75378468      12.38512438       0.14009555      -0.13724555      -0.20887018
Si      12.78389140      14.08017602      14.68331947       0.04317247       0.02364595       0.05138236
