5
Lattice="27.25 0.0 0.0 0.0 27.25 0.0 0.0 0.0 27.25" Properties=species:S:1:pos:R:3:forces:R:3 energy=-43.721387981818154 bias_energy=0 name=displace pbc="T T T"
Si      14.59027198      12.71360616      13.10209004       0.07974847       0.01803273      -0.04347200
Si      14.18074287      13.18475517      15.41339797      -0.13937713      -0.09934220       0.24638413
Si      13.98021588      14.98832398      13.84673794       0.09868695      -0.00139762       0.00153382
Si      13.06850735      14.06103936      11.83528190      -0.11051757       0.09394441      -0.17405467
Si      12.30526192      13.17727533      13.92749216       0.07145928      -0.01123733      -0.03039129
5
Lattice="27.25 0.0 0.0 0.0 27.25 0.0 0.0 0.0 27.25" Properties=species:S:1:pos:R:3:forces:R:3 energy=-43.72144162339433 bias_energy=-43.522238190939255 name=displace pbc="T T T"
Si      14.59499931      12.71453945      13.11259334       0.07827777       0.05782583      -0.02199556
Si      14.09776572      13.11751599      15.42229249      -0.19977869      -0.11211506       0.19369742
Si      13.99183833      14.97211561      13.90999883       0.12958195      -0.04055832       0.01206486
Si      13.15157884      14.13822371      11.82951655      -0.07948771       0.10674337      -0.11044165
Si      12.28881780      13.18260524      13.85059879       0.07140668      -0.01189582      -0.07332506
5
Lattice="27.25 0.0 0.0 0.0 27.25 0.0 0.0 0.0 27.25" Properties=species:S:1:pos:R:3:forces:R:3 energy=-43.72144162339433 bias_energy=0 name=displace pbc="T T T"
Si      14.59499931      12.71453945      13.11259334       0.07974847       0.01803273      -0.04347200
Si      14.09776572      13.11751599      15.42229249      -0.13937713      -0.09934220       0.24638413
Si      13.99183833      14.97211561      13.90999883       0.09868695      -0.00139762       0.00153382
Si      13.15157884      14.13822371      11.82951655      -0.11051757       0.09394441      -0.17405467
Si      12.28881780      13.18260524      13.85059879       0.07145928      -0.01123733      -0.03039129
