Si
 1.0000000000000000
    27.2500000000000000    0.0000000000000000    0.0000000000000000
     0.0000000000000000   27.2500000000000000    0.0000000000000000
     0.0000000000000000    0.0000000000000000   27.2500000000000000
 Si 
 1004
Cartesian
 27.2499584544652755 27.2498987888262860 27.2497866997039111
  2.7176789104248966  2.7311494789774127  0.0011267944840796
  0.0012998298107093  2.7311487409576043  2.7175060319049082
  2.7162596208163938  0.0005853146586616  2.7160876529087443
  1.3583647822468863  1.3658277173268745  1.3581918476395545
  4.0779178450201217  4.0954125864667397  1.3605545074175107
  4.0740748202968682  1.3674034576687306  4.0739015478146010
  1.3607286550534690  4.0954120614646010  4.0777436490991059
  5.4367782637627604 27.2498995295704951 27.2497864325835870
  8.1615054327546712  2.7273446923378808  0.0029197863315951
  5.4371473471361691  2.7296229464615851  2.7165238034393133
  8.1589753518225461  0.0008694470155100  2.7088097660027004
  6.7967601171234291  1.3656157737300765  1.3569069111299528
  9.5258977993243548  4.0913286562508580  1.3573615402482857
  9.5222225057120102  1.3615164088343739  4.0643993469218982
  6.7987191157074056  4.0917230130666136  4.0749238027284962
 10.8905982512353869 27.2498995835037121 27.2497859689133399
 13.6249591839108728  2.7233378402473467 27.2497856120328166
 10.8877937087439172  2.7189999639598921  2.7047464835650019
 13.6249583197286874 27.2498988374198134  2.7011001567829256
 12.2572171561067744  1.3616872691886275  1.3509968474748730
 14.9930246220553656  4.0848544211228948  1.3493300450190047
 14.9953925657646874  1.3515756303213236  4.0558880132919164
 12.2581377133288960  4.0705756116958653  4.0573248996313280
 16.3593185679172741 27.2498988595756835 27.2497859644213349
 19.0884129949330870  2.7273431690393228 27.2466520189358619
 16.3579733422922189  2.7161911641131367  2.7003562254735538
 19.0909414841700880 27.2489279591442362  2.7088099693186822
 17.7272653892370897  1.3596192967282295  1.3502168926476483
 20.4530584945316036  4.0890164162400682  1.3513265907193817
 20.4583297027992437  1.3554856058548639  4.0657656189800573
 17.7332424263903512  4.0655243481781502  4.0519217227359174
 21.8131385732267802 27.2498983607694321 27.2497863904639708
 24.5322395764050043  2.7311485045184152 27.2484458861428891
 21.8150178969977873  2.7265119503810746  2.7115831730037989
 24.5336575184384955 27.2492117549838291  2.7160877839372342
 23.1750173175327419  1.3633124871154356  1.3557917090724041
 25.8924357283525701  4.0951733644872963  1.3573099105302127
 25.8939536448751326  1.3633127050690461  4.0747279587316800
 23.1789799245191830  4.0869402397395671  4.0707653692777539
 27.2499596255272145  5.4620562021161998 27.2497860065633510
  2.7220367806583541  8.1879049986306871  0.0031559648773154
  0.0033299940197623  8.1879043466738128  2.7218625642572505
  2.7212424750262074  5.4610346059558816  2.7210682897969676
  1.3612551972110287  6.8242953440544865  1.3610808907359357
  4.0875875927072896  9.5482790716258545  1.3641435299479818
  4.0827677465476757  6.8234520719387390  4.0825927470822574
  1.3643177731087435  9.5482785776943562  4.0874129930864616
  5.4402195068676180  5.4586312536830146  0.0044412790143513
  8.1712215804966064  8.1833287560596037  0.0041658023501432
  5.4485443112781455  8.1869319193120607  2.7264945248460282
  8.1638940832107263  5.4545522070541459  2.7176119010079836
  6.8048199472301514  6.8221418391778821  1.3620063664387267
  9.5373793986802990  9.5448000323688884  1.3646975949063207
  9.5273819788163507  6.8137701319044179  4.0777094685751152
  6.8132381445719563  9.5472009156253996  4.0904893867084473
 10.8931530245455743  5.4534736981597405  0.0028956907140434
 13.6249600591417810  8.1792377869652331 27.2497848382962538
 10.8966556366914169  8.1795265839593245  2.7247447884715692
 13.6218571605918068  5.4399943013537850  2.7033894971213841
 12.2584195334670429  6.8170162874763367  1.3588823081453352
 14.9867935021547094  9.5408560280677168  1.3638247483882007
 14.9949599338167054  6.7896315090760870  4.0574720660515800
 12.2583799816950094  9.5381518598266588  4.0926750221529282
 16.3567665770692336  5.4534725837240341 27.2466748924697946
 19.0786981620626861  8.1833268307502127 27.2454044348239606
 16.3553966935026054  8.1734790521347236  2.7159976916850916
 19.0886306314435323  5.4479023794818167  2.7062194436127247
 17.7207522420529848  6.8154570456597572  1.3544464900437283
 20.4389949531566586  9.5445374509248797  1.3598246423179907
 20.4568357174648234  6.8054475235475076  4.0651364343122358
 17.7176053769778648  9.5328848975710017  4.0836930405129763
 21.8096999514417114  5.4586294268485371 27.2451301887720945
 24.5278822736598485  8.1879038243550717 27.2464150908802907
 21.8099382142954106  8.1818278287572888  2.7135455565400810
 24.5339948430841766  5.4587717895850911  2.7157506401598277
 23.1714385165000323  6.8206663060532557  1.3548746130411835
 25.8898042844739749  9.5478915330111747  1.3599403662920051
 25.8948707457262159  6.8206667751592409  4.0783065952495958
 23.1714052906876908  9.5422502001602361  4.0783391064892642
 27.2499587797087486 10.9099812654083248 27.2497853849217222
  2.7282354541949716 13.6248986061953090 27.2497853741937668
 27.2499581084618043 13.6248980949642782  2.7280626930019074
  2.7296874536755524 10.9098677628666429  2.7295133155931950
  1.3647102964160003 12.2671157242875992  1.3645371671784798
  4.0919670343433268 14.9825750791986625  1.3637063445166049
  4.0964840277091659 12.2663176942956902  4.0963101142408114
  1.3638786009040267 14.9825745844220730  4.0917947369049141
  5.4526920930742753 10.9079544787022265  0.0027906576210416
  8.1816734207379174 13.6248999858393702 27.2497850118894220
  5.4577582694596272 13.6257494504089713  2.7306522628915317
  8.1826606389454160 10.9082971176323777  2.7342838399440170
  6.8195773755180920 12.2658522241779107  1.3664401821901888
  9.5427668189554016 14.9853837987243974  1.3662661210364504
  9.5482124260180523 12.2660225317618696  4.1044723351562267
  6.8215044269724050 14.9846923086202715  4.0961886611695428
 10.9027091978600481 10.9038552619853846 27.2507338704184434
 13.6249591500590004 13.6248999235134995 27.2497846032163018
 10.9060480043091115 13.6274069593739284  2.7355965630260064
 13.6248457961127567 10.9008438025673549  2.7329636487409865
 12.2645899947904358 12.2643802676890097  1.3676517246947528
 14.9853281834123688 14.9854195786284006  1.3676518759989498
 14.9842465999086194 12.2601865630003939  4.1044643097511040
 12.2656710612505737 14.9896136232668571  4.1044643707564950
 16.3472102386893106 10.9038541390906172 27.2488355173668779
 19.0682440410681231 13.6248985357295105 27.2497847548519339
 16.3438700592677435 13.6223927541845136  2.7355965927470676
 19.0741953666232540 10.9026248282098752  2.7253439177753052
 17.7071506919712327 12.2644151519591240  1.3662661045579294
 20.4303399523185441 14.9839458885903944  1.3664404089185314
 20.4284122803761257 12.2651059215816272  4.0961888593480840
 17.7017052543739872 14.9837771764037857  4.1044727392855025
 21.7972262321814370 10.9079527212988747 27.2467795239770538
 24.5216805578086898 13.6248977342502560 27.2497852503636757
 21.7921586512662557 13.6240480913890405  2.7306523279965065
 24.5283418672195310 10.9088180225281413  2.7214021281672762
 23.1579490726992034 12.2672215313935222  1.3637062943660596
 25.8852057192722746 14.9826803814015186  1.3645373692570575
 25.8860374523744383 12.2672218951526002  4.0917946164030168
 23.1534326164606021 14.9834797261755277  4.0963106132861595
 27.2499570931982653 16.3398148504725285 27.2497856777743657
  2.7220335575149575 19.0618926346180224 27.2464156856001978
 27.2465865391126236 19.0618921188463091  2.7218630626561637
  2.7215742695100515 16.3409783646055580  2.7214023894098625
  1.3601116722321365 17.7019045785795726  1.3599406954294719
  4.0784776216005802 20.4291302776386878  1.3548748735299199
  4.0785107629675297 17.7075466228030898  4.0783392413449961
  1.3550457667430722 20.4291297843352027  4.0783070655297813
  5.4526899553168606 16.3418443004514415 27.2467800639454900
  8.1712183255335074 19.0664710299836635 27.2454050208397689
  5.4399779951319598 19.0679690502382186  2.7135458802802921
  8.1757216568948703 16.3471734477862967  2.7253440884592153
  6.8109214595735024 17.7052599449706669  1.3598248079435857
  9.5291645072685451 20.4343409793450270  1.3544467037438426
  9.5323113810037192 17.7169138277551816  4.0836931956401195
  6.7930804356207402 20.4443497110775674  4.0651365849755416
 10.9027074084572728 16.3459450346324715 27.2488358627562448
 13.6249577339294028 19.0705615815274498 27.2497852389615680
 10.8945203917318825 19.0763195507381589  2.7159980037254488
 13.6250722650665850 16.3489560159505416  2.7329638397273213
 12.2631241792171899 17.7089432792774062  1.3638249763938295
 14.9914983365234793 20.4327827880009600  1.3588827575581195
 14.9915377371995984 17.7116479924442878  4.0926754808715096
 12.2549569927147370 20.4601671754012955  4.0574724326779226
 16.3472090529528273 16.3459443257805361 27.2507339946878382
 19.0786964130090766 19.0664701894136002  0.0041660408003321
 16.3532624370023463 19.0702726753811653  2.7247452098200444
 19.0672573699491075 16.3415018258926210  2.7342841440287584
 17.7125387672514130 17.7049991924619015  1.3646980385323004
 20.4450979850721204 20.4276564941640331  1.3620070170662313
 20.4366795053604555 17.7025977430931150  4.0904902419837601
 17.7225357968964552 20.4360287896817781  4.0777103148552332
 21.7972251070791501 16.3418432444627015  0.0027907045371997
 24.5278800279413716 19.0618921393182887  0.0031563368226789
 21.8013734190441255 19.0628660286035867  2.7264950838247839
 24.5202293311622732 16.3399290463443450  2.7295137007526353
 23.1623295126787312 17.7015181857064121  1.3641440475468138
 25.8886616445711262 20.4255014684473366  1.3610814365962456
 25.8855988342840853 17.7015181841856624  4.0874136582747909
 23.1671497809306643 20.4263455358703538  4.0825936949308828
 27.2499568507448089 21.7877408318267918 27.2497864694753851
  2.7176769161883683 24.5186488199273640 27.2484462172317841
 27.2486172669331701 24.5186481702705308  2.7175063567003082
  2.7159215830845418 21.7910247645417350  2.7157510107081233
  1.3574810485842985 23.1546234513168550  1.3573101967215717
  4.0748996889919580 25.8864847113008629  1.3557916003085773
  4.0709366109985199 23.1628564882696182  4.0707654925303602
  1.3559636551880225 25.8864841892453015  4.0747279971244224
  5.4402161017642392 21.7911677394312946 27.2451307686895241
  8.1615034271186069 24.5224547131383979 27.2466523447517588
  5.4348986411786075 24.5232849913558120  2.7115832971577865
  8.1612857038364339 21.8018949626999010  2.7062197181628358
  6.7968579993024054 23.1607808177163257  1.3513266799479688
  9.5226515499745457 25.8901784748603561  1.3502167298949139
  9.5166739514897181 23.1842731186944491  4.0519218064125120
  6.7915870850659958 25.8943114640016461  4.0657653638495415
 10.8931502180429298 21.7963258658524772 27.2466753804357502
 13.6249577694821653 24.5264608192959876 27.2497859008786918
 10.8919431816181795 24.5336064191326919  2.7003563336622518
 13.6280600298865000 21.8098041400968192  2.7033898585947131
 12.2568924807174415 23.1649438262145999  1.3493302815710502
 14.9927000458507269 25.8881108799226141  1.3509970915171607
 14.9917793386719680 23.1792225836170189  4.0573254180630016
 12.2545239732538640 25.8982219026747593  4.0558880077418102
 16.3567646801708690 21.7963254069619339  0.0028960297369098
 19.0884119306737325 24.5224538516893311  0.0029199841257887
 16.3621234149583330 24.5307980044477567  2.7047468209918955
 19.0860237597839166 21.7952461681983998  2.7176124585710806
 17.7240199874642883 23.1584698203660508  1.3573620841107041
 20.4531573199521013 25.8841820155663846  1.3569073787025343
 20.4511985509380594 23.1580748903633307  4.0749247065758913
 17.7276944817865640 25.8882811548229661  4.0643998803775734
 21.8096980480747114 21.7911669932417880  0.0044416555693095
 24.5322381722263856 24.5186482943333672  0.0011270821975511
 21.8127701183903930 24.5201746354303332  2.7165243144117697
 24.5286748806953874 21.7887626121745086  2.7210688882829821
 23.1719997528403354 23.1543850520739980  1.3605551427840656
 25.8915525679269507 25.8839695366319091  1.3581921162886457
 25.8891887113758550 23.1543849292371355  4.0777443115027294
 23.1758426596486373 25.8823937361457652  4.0739021370482105
 27.2499587240928562 27.2498984989294080  5.4366065831928552
  2.7166973208512699  2.7296226567303128  5.4369739255611744
  0.0030933154110472  2.7273438429720192  8.1613320027254996
  2.7089823211038646  0.0008693562571410  8.1588032454060198
  1.3570802863769202  1.3656152146264193  6.7965869214901140
  4.0750982483743572  4.0917230143693653  6.7985445132785216
  4.0645725897031530  1.3615169462047738  9.5220492207457426
  1.3575357960574843  4.0913285761829545  9.5257230118784975
  5.4303981767955314  0.0014785147058112  5.4302259068184089
  8.1542535773392633  2.7154271578521274  5.4249588078508708
  5.4251324183385847  2.7154274707647863  8.1540800066440351
  8.1495519253384821 27.2509346838819866  8.1493800298906418
  6.7900300765778665  1.3613980326828596  6.7898568809138364
  9.5203835263333811  4.0631268360084372  6.7839027664254177
  9.5154989694806851  1.3467993767643411  9.5153265606313919
  6.7840768692249638  4.0631273893049711  9.5202093044252685
 10.8867018508944060 27.2504994972999235  5.4186586496436879
 13.6198284774064078  2.6975242891571596  5.4091564875823872
 10.8793096965926637  2.6913320649232984  8.1404975673207609
 13.6249577319291504 27.2498988464740499  8.1461692561044377
 12.2556077555131928  1.3479512296574081  6.7797944818997058
 15.0022711150529346  4.0333525051693977  6.7593906329727291
 14.9972290288104464  1.3435883318563755  9.5122542643632837
 12.2531810895723847  4.0252407540584167  9.5010676851716767
 16.3632143877825591 -0.0007022108897006  5.4186587828839103
 19.0952443371001941  2.7109161009053726  5.4212759842796769
 16.3655665664806342  2.6894564445975915  8.1397153553298036
 19.1003642224891408 -0.0011370617532723  8.1493800793947884
 17.7351051142115530  1.3463276250154756  6.7797315036651362
 20.4704047961341828  4.0601424576527467  6.7793398513293530
 20.4700129647833862  1.3463277205417912  9.5146390199799900
 17.7524514370515334  4.0253323698263026  9.4972925938734694
 21.8195188206162918 27.2483185964116217  5.4302261576204236
 24.5381622766292935  2.7265122327150073  5.4347273962322094
 21.8284688567265839  2.7109162932494191  8.1545002723984670
 24.5409349998558852 27.2489281945296185  8.1588032623593723
 23.1839794377154824  1.3554858199298387  6.7914151490392154
 25.8984188538958655  4.0890170471080394  6.7966865122898890
 25.8995281309779912  1.3596197930968930  9.5224791679241676
 23.1978232153116579  4.0655246666956524  9.5165019808457973
  0.0046153613108936  5.4586301897837988  5.4400452281949843
  2.7266693009871981  8.1869315828590921  5.4483692261174319
  0.0043402373905086  8.1833277564180182  8.1710462633563257
  2.7177864522934359  5.4545521237971615  8.1637192259302545
  1.3621810315113116  6.8221412341247056  6.8046446568630712
  4.0906642337882495  9.5472007651790971  6.8130628423966177
  4.0778843111976455  6.8137704986147005  9.5272065037592313
  1.3648719095588169  9.5447995331982121  9.5372038017622440
  5.4390901166752963  5.4540096666006184  5.4389153992504919
  8.1701800762926027  8.1787918510745676  5.4473337619476458
  5.4475089003092609  8.1787920038234105  8.1700046842669973
  8.1441074539552272  5.4108905298231882  8.1439329262669311
  6.8016105236219326  6.8114286132324295  6.8014353574591917
  9.5359480963751544  9.5328391478334495  6.8161023657264552
  9.5090710983927735  6.7412981987932596  9.5088964734412329
  6.8162771082029856  9.5328394363628295  9.5357730576319231
 10.8815658986962323  5.4179862475218714  5.4122393165823812
 13.6198163435238566  8.1341624364082801  5.4142260268920346
 10.8689922571898698  8.0793170142354267  8.1147155016594432
 13.6144749887689969  5.3588096215513525  8.1074813951892768
 12.2601190373529434  6.7513042545041024  6.7628445731912121
 14.9969217434093292  9.4676210015882152  6.7722981760310379
 15.0220930980740448  6.6597108096480415  9.4462914890357084
 12.2588294555366382  9.3674795175985732  9.4724593625932272
 16.3586056065239411  5.4072927369429742  5.4011125344613449
 19.0944524858553102  8.1595563354319243  5.4240902914924725
 16.3672856567934524  8.0552363055873997  8.0909973897654162
 19.1093341688708556  5.4026151076075317  8.1404100275181364
 17.7494834087783957  6.7399027811218488  6.7453223996922222
 20.4659552686689317  9.5217691219263241  6.7837887086926312
 20.5044218599786419  6.7399026657179144  9.5002606878455538
 17.8591293115579610  9.3112425984636680  9.3906144927807862
 21.8198809807600433  5.4452317826945364  5.4298638513337378
 24.5361991300226485  8.1818281549378948  5.4398063519629707
 21.8256538007938552  8.1595563347563207  8.1552915758590832
 24.5435255768464486  5.4479028709938397  8.1611140161861684
 23.1846083486491494  6.8054477444254333  6.7929088634591022
 25.8899197871995277  9.5445380789159486  6.8107493455137043
 25.8952983912892201  6.8154577236063361  9.5289922216639482
 23.1660508871500497  9.5328848165337998  9.5321386951342610
  0.0029644951640166 10.9079534673033098  5.4525176851442927
  2.7308257045792650 13.6257489836370773  5.4575846849707297
 27.2499581970672047 13.6248987513418971  8.1814997120717194
  2.7344583177775976 10.9082966441876810  8.1824854688438133
  1.3666136545859395 12.2658514392821072  6.8194031485189006
  4.0963614394396624 14.9846919300067416  6.8213314662906113
  4.1046460826616524 12.2660222730457384  9.5480378918576250
  1.3664386396790895 14.9853828016752715  9.5425936890655425
  5.4641500460403423 10.9114125838385405  5.4639751515994535
  8.1923563699785955 13.6328320676242232  5.4705112126650199
  5.4706849931621031 13.6328318429846629  8.1921824180426004
  8.2091262449625706 10.9149149611416671  8.2089514169657996
  6.8360928316119862 12.2655877449882915  6.8359186148512654
  9.5566146956677649 14.9921410301861648  6.8411822834300837
  9.5977519078731675 12.2591549241348527  9.5975782223693233
  6.8413547691136216 14.9921408925456028  9.5564420492293856
 10.9122469336669869 10.9091551472125179  5.4760756201443614
 13.6249589011635717 13.6249003129495989  5.4773769467536590
 10.9424309252367280 13.6606319990293787  8.2429765172795388
 13.6105355656174130 10.7849528081742037  8.1428941701028741
 12.2775163262917566 12.2650230851932545  6.8606707561070985
 14.9724007954617218 14.9847780023971353  6.8606710571143621
 15.1053677644535025 11.9675956228126736  9.5012830743631493
 12.1445482123691502 15.2822063838684610  9.5012837531123058
 16.3515956131486782 10.8863561100008734  5.4554917679273061
 19.0575610124386436 13.6169672978122129  5.4705113654705650
 16.3074862714543052 13.5891691233909455  8.2429763120946795
 19.1053724681187731 10.8722551772995999  8.1443710690129389
 17.6933020596648767 12.2576590785050730  6.8411821801312929
 20.4138239794146585 14.9842116515184092  6.8359193131545597
 20.4085612056626857 12.2576587663972312  9.5564416387247348
 17.6521644766914072 14.9906462922421095  9.5975788436522738
 21.8108953193688464 10.9033082122530853  5.4388484345837522
 24.5190908832568581 13.6240481600627774  5.4575847797113184
 21.7792317182379378 13.6169670655008428  8.1921824491841893
 24.5243996989968274 10.9026249448801664  8.1755485602776172
 23.1535546840267585 12.2651059172089774  6.8213314491944521
 25.8833025387060971 14.9839459195063593  6.8194035819105263
 25.8834772002819982 12.2644151812732520  9.5425933371334750
 23.1452701496474340 14.9837766454893995  9.5480384715021014
 27.2469520572607529 16.3418433172601887  5.4525181932284585
  2.7137172348979384 19.0679685991680579  5.4398069120085495
 27.2455765677324599 19.0664697530978593  8.1710473947269104
  2.7255165995800126 16.3471726878311365  8.1755491995416278
  1.3599964158071793 17.7052590703792454  6.8107500148138316
  4.0653076909143309 20.4443494148216338  6.7929094742109664
  4.0838647710545839 17.7169133527331901  9.5321397027550763
  1.3546179924954644 20.4343400818362149  9.5289935677503781
  5.4390211174743381 16.3464894378027452  5.4388486524953752
  8.1554638077828425 19.0902416593253363  5.4240907667353815
  5.4242621305258902 19.0902414802413922  8.1552925645261602
  8.1445438559131258 16.3775442518039540  8.1443716748027875
  6.7839606282173710 17.7280291322082739  6.7837890794000781
  9.5004324876179709 20.5098956221463702  6.7453229581247545
  9.3907859140696957 17.9385576704214706  9.3906153045486658
  6.7454934029677807 20.5098957437064691  9.5002619138556135
 10.8983216474403459 16.3634436407246859  5.4554920709324906
 13.6301008796675855 19.1156369954612728  5.4142265979989643
 10.8826304542100551 19.1945631090564639  8.0909983829184213
 13.6393813807199820 16.4648480980788499  8.1428949634281320
 12.2529949526454924 17.7821791080539136  6.7722987857261723
 14.9897977037523518 20.4984951438166227  6.7628455629314255
 14.9910869063916543 17.8823215037313474  9.4724606784026033
 12.2278224354241054 20.5900888790672774  9.4462928266309092
 16.3376709029714249 16.3406450695942489  5.4760760423032604
 19.0797377427484491 19.0710072439527032  5.4473346324755187
 16.3809247256170707 19.1704830732793354  8.1147166834470443
 19.0407909411180434 16.3348852425864024  8.2089522230809813
 17.7139691437974633 17.7169610040115515  6.8161033905253801
 20.4483069317275046 20.4383702548402617  6.8014366493057423
 20.4336397243222585 17.7169606288027701  9.5357743260120404
 17.7408455409453438 20.5085018597168514  9.5088979346910012
 21.7857673425371310 16.3383857897832243  5.4639758206112914
 24.5232480114665172 19.0628658507035418  5.4483701185058440
 21.8024085575438669 19.0710069751337805  8.1700058824310879
 24.5154585446072772 16.3415014340125282  8.1824862436010708
 23.1592527836178270 17.7025975208908299  6.8130639552733818
 25.8877360220370534 20.4276562225980456  6.8046457672645815
 25.8850445076504698 17.7049986710144545  9.5372049859261878
 23.1720328250384711 20.4360284294608476  9.5272080036514311
 27.2453017444172687 21.7911667027966729  5.4400459743052396
  2.7117546587192933 24.5232846095818608  5.4347276984025870
 27.2468241076958613 24.5224536790454302  8.1613327239365976
  2.7063909677917009 21.8018944156591914  8.1611150597653275
  1.3514981224189213 23.1607800500424119  6.7966871744106392
  4.0659375032560661 25.8943113692882569  6.7914151368497881
  4.0520929324806909 23.1842731370441371  9.5165029820238551
  1.3503891126407850 25.8901781892967620  9.5224795960026878
  5.4300352040802267 21.8045651173135155  5.4298643010671528
  8.1546718620128278 24.5388809591529693  5.4212761833058325
  5.4214474369525236 24.5388810424445332  8.1545008524092815
  8.1405814780638046 21.8471827340748987  8.1404109889897160
  6.7795111759619138 23.1896548030997067  6.7793402147774788
  9.5148108813512469 25.9034698149484441  6.7797315114766867
  9.4974637569142999 23.2244659660787711  9.4972935712163089
  6.7799030446319293 25.9034702199200702  9.5146393545942587
 10.8913106864918365 21.8425052246629754  5.4011130085559387
 13.6300877934093165 24.5522733446106365  5.4091568165913708
 10.8843489534107771 24.5603413278907858  8.1397159670728048
 13.6354410485986843 21.8909892434640163  8.1074824304888420
 12.2476448256237909 23.2164456189165840  6.7593912177803190
 14.9943082072064691 25.9018464807611046  6.7797948396871490
 14.9967346101920445 23.2245582901002550  9.5010687848429498
 12.2526861667964511 25.9062099238723711  9.5122546719193082
 16.3683512850237172 21.8318123478117592  5.4122400621906186
 19.0956635474380612 24.5343705635975020  5.4249594459156221
 16.3706063627353622 24.5584660970723192  8.1404982017315177
 19.1058097018101272 21.8389084608271524  8.1439340611359228
 17.7295333378770756 23.1866716073351782  6.7839037492872611
 20.4598868481333653 25.8883996047252474  6.7898575232694194
 20.4658400617185521 23.1866715964488925  9.5202104905685250
 17.7344168624899368 25.9029990048402112  9.5153269974200665
 21.8108276049754437 21.7957883042011780  5.4389163315335027
 24.5332202345232524 24.5201745631125902  5.4369745605580944
 21.8247848255473151 24.5343705777994074  8.1540807455678816
 24.5321310471294076 21.7952458737065164  8.1637204152547014
 23.1748192815278600 23.1580748106299978  6.7985455982618612
 25.8928372650096392 25.8841820809255800  6.7965873477374679
 25.8923815099910293 23.1584695789807427  9.5257241793503553
 23.1853445825700817 25.8882812756240526  9.5220496711183582
 27.2499586502277147 27.2498992399034670 10.8904260340718420
  2.7049200959450612  2.7190006724147109 10.8876200607825773
 27.2499592049120807  2.7233385117664546 13.6247852998578978
  2.7012723882664482 27.2499002212819512 13.6247861190937289
  1.3511701038594910  1.3616879346692645 12.2570435691059085
  4.0574988989365819  4.0705770268872445 12.2579632003694456
  4.0560606039570546  1.3515778326864285 14.9952194662742890
  1.3495039639557063  4.0848559726568929 14.9928498003201760
  5.4188307556266393 27.2505004789929082 10.8865299427469591
  8.1406705726963438  2.6913328972954638 10.8791367678814073
  5.4093295420678649  2.6975263928746203 13.6196553728368777
  8.1463405753761098 27.2499004854807261 13.6247863817833821
  6.7799669667288018  1.3479526827410075 12.2554351692254500
  9.5012411915495605  4.0252417231843456 12.2530076059131527
  9.5124262847826113  1.3435901805587425 14.9970569035339985
  6.7595641748019464  4.0333549791253702 15.0020973959656594
 10.8842903914574887  0.0003699140100060 10.8841191312333070
 13.6240162632734503  2.6848464310839648 10.8787411387115061
 10.8789137336611326  2.6848474525781048 13.6238437082237560
 13.6249573947848130 27.2498997790373600 13.6247861313684915
 12.2542282334967911  1.3438368434225982 12.2540562491428986
 15.0039655930353018  4.0203140387196727 12.2457781991928094
 14.9956875525280910  1.3438367008683370 14.9955152361185959
 12.2459515145798967  4.0203150807695085 15.0037923412934138
 16.3656247848339085 27.2494286125000507 10.8841189482987843
 19.1100288503167910  2.6894564440470772 10.8841773372973307
 16.3710027646576037  2.6848462742646455 13.6257273397615055
 19.1035749808553028 27.2498990087048334 13.6247857494691686
 17.7374897019533506  1.3435882944384554 12.2525145722023101
 20.4903537990519418  4.0333523172763650 12.2474727567064541
 20.4699500252121425  1.3479512038300405 14.9941357769035584
 17.7486765282059231  4.0252401223727157 14.9965626599446349
 21.8310857988977389 -0.0007019777093021 10.8865296460898993
 24.5493887902142092  2.7161916582286403 10.8917710719564820
 21.8405881936412278  2.6975243589634337 13.6299154024741505
 24.5486444086700466 27.2498992511487650 13.6247857467266957
 23.1938567478544329  1.3515759130369558 12.2543513579502648
 25.9004149059422915  4.0848550007233078 12.2567197636547576
 25.8987478123620427  1.3616877068099438 14.9925269466770139
 23.1924198400435166  4.0705754158420042 14.9916064170591987
  0.0030700210556406  5.4534734479907110 10.8929780279462527
  2.7249195418803360  8.1795268506333016 10.8964800490246549
 27.2499592504269827  8.1792380160162050 13.6247844804514315
  2.7035637466578430  5.4399958235693280 13.6216823816129438
  1.3590567577653219  6.8170167967203037 12.2582438524014758
  4.0928492968408161  9.5381524506856010 12.2582047259088363
  4.0576462940280562  6.7896334534932583 14.9947850041733695
  1.3639986731238325  9.5408566817630884 14.9866182411898681
  5.4124138050601971  5.4179872985567457 10.8813912859628665
  8.1148904803311357  8.0793177611275926 10.8688173847628811
  5.4144006346997449  8.1341639413377678 13.6196414387266813
  8.1076554960623248  5.3588115045125964 13.6143010754383855
  6.7630191350946509  6.7513056155796951 12.2599442380064261
  9.4726339771290959  9.3674804113965227 12.2586549713468358
  9.4464658383197619  6.6597128258462863 15.0219190003716765
  6.7724723093072186  9.4676226759465152 14.9967473344312356
 10.8624042623983907  5.3532910503203652 10.8622302748766266
 13.6135115558415301  7.9374073049913845 10.7953799937146009
 10.7955548145839035  7.9374084638372171 13.6133371515102386
 13.6249587912284120  5.3458780535527648 13.6247849952932167
 12.2363162343794158  6.6599840012493656 12.2361420351096726
 15.1376049867423692  9.1032237685002109 12.1121389440754914
 15.0136020462074899  6.6599832946761488 15.0134277587798675
 12.1123137603970168  9.1032251331307315 15.1374305538247995
 16.3851860076843536  5.3506416176441993 10.8645577520827157
 19.1587463481733487  8.0552359446170545 10.8824580807362636
 16.4543637625639292  7.9374066400576906 13.6362321694361199
 19.1422626973909544  5.3588090644749400 13.6352687951231246
 17.8034524863322545  6.6597103341601338 12.2276507250039490
 20.4774455027195827  9.4676202072949796 12.2528222119182253
 20.4868995800250460  6.7513032066522456 14.9896250618416627
 17.7772844447941090  9.3674782601219775 14.9909145375126318
 21.8486319184178939  5.4072927431392648 10.8911385121051900
 24.5337464439913440  8.1734791395846713 10.8943474901808237
 21.8355177546637016  8.1341616083626249 13.6299276940991234
 24.5463551057745164  5.4399943883336093 13.6278871785820996
 23.1922723507081585  6.7896313218612683 12.2547842669973388
 25.8859191459878026  9.5408559561906277 12.2629508206542415
 25.8908621649663964  6.8170161570509258 14.9913250342979278
 23.1570686184257042  9.5381506178500555 14.9913643667382903
  0.0009079655266010 10.9038543897868951 10.9025339311847507
  2.7357701011502344 13.6274064096664347 10.9058739520326675
 27.2499578671754854 13.6248991365874605 13.6247850143153233
  2.7331378052549065 10.9008441760645987 13.6246708436267028
  1.3678251039502962 12.2643797570513282 12.2644153013619910
  4.1046366786146020 14.9896133972671031 12.2654981433476262
  4.1046374470068692 12.2601872154561224 14.9840726506934310