5
Lattice="27.25 0.0 0.0 0.0 27.25 0.0 0.0 0.0 27.25" Properties=species:S:1:pos:R:3 energy=-41.25032218824286 minima_index=1 pbc="T T T"
Si      13.29940881      12.09395062      12.98325002
Si      14.38309015      15.82037098      13.59851075
Si      13.93597459      14.24235174      12.08158699
Si      13.28372205      11.96678244      15.21459044
Si      13.22280441      14.00154423      14.24706180
5
Lattice="27.25 0.0 0.0 0.0 27.25 0.0 0.0 0.0 27.25" Properties=species:S:1:pos:R:3 energy=-41.24967435840583 minima_index=2 pbc="T T T"
Si      14.85378469      14.37828703      12.72800440
Si      12.17794037      13.33250331      15.42364831
Si      13.57377449      14.91887263      14.70453781
Si      14.53491655      12.30704352      11.94441787
Si      12.98458389      13.18829352      13.32439159
5
Lattice="27.25 0.0 0.0 0.0 27.25 0.0 0.0 0.0 27.25" Properties=species:S:1:pos:R:3 energy=-41.250067446570256 minima_index=3 pbc="T T T"
Si      14.45837619      13.12279617      12.23535022
Si      13.37296496      14.63142442      15.70324362
Si      14.89873654      14.65563612      14.06966147
Si      12.58299396      11.92785072      12.42912502
Si      12.81192835      13.78729258      13.68761968
5
Lattice="27.25 0.0 0.0 0.0 27.25 0.0 0.0 0.0 27.25" Properties=species:S:1:pos:R:3 energy=-41.25030718926406 minima_index=4 pbc="T T T"
Si      14.39958140      13.17303954      12.18813095
Si      13.43926498      14.62561105      15.71501140
Si      14.88149044      14.69165051      14.01024122
Si      12.59654553      11.88634590      12.47867296
Si      12.80811765      13.74835300      13.73294347
5
Lattice="27.25 0.0 0.0 0.0 27.25 0.0 0.0 0.0 27.25" Properties=species:S:1:pos:R:3 energy=-41.25033066760518 minima_index=5 pbc="T T T"
Si      14.30384780      13.19851474      12.13051688
Si      13.54877753      14.64653060      15.71051445
Si      14.83959758      14.77454073      13.89282154
Si      12.61583826      11.80677282      12.59080998
Si      12.81693883      13.69864111      13.80033715
5
Lattice="27.25 0.0 0.0 0.0 27.25 0.0 0.0 0.0 27.25" Properties=species:S:1:pos:R:3 energy=-42.185220620153075 minima_index=6 pbc="T T T"
Si      13.93354207      12.20906031      12.59482377
Si      14.74795887      15.37133470      14.21492622
Si      13.24230688      14.51460723      12.66219337
Si      11.99932480      12.84531515      13.87362794
Si      14.20186739      13.18468261      14.77942869
5
Lattice="27.25 0.0 0.0 0.0 27.25 0.0 0.0 0.0 27.25" Properties=species:S:1:pos:R:3 energy=-43.72148082831332 minima_index=7 pbc="T T T"
Si      13.36752728      12.69849347      12.57229419
Si      15.49352269      13.63034336      13.16022338
Si      13.55667845      15.02825413      13.37570021
Si      11.75668692      13.61725588      14.08689035
Si      13.95058466      13.15065317      14.92989188
5
Lattice="27.25 0.0 0.0 0.0 27.25 0.0 0.0 0.0 27.25" Properties=species:S:1:pos:R:3 energy=-43.721387981818154 minima_index=8 pbc="T T T"
Si      14.59027198      12.71360616      13.10209004
Si      14.18074287      13.18475517      15.41339797
Si      13.98021588      14.98832398      13.84673794
Si      13.06850735      14.06103936      11.83528190
Si      12.30526192      13.17727533      13.92749216
5
Lattice="27.25 0.0 0.0 0.0 27.25 0.0 0.0 0.0 27.25" Properties=species:S:1:pos:R:3 energy=-43.72144162339433 minima_index=9 pbc="T T T"
Si      14.59499931      12.71453945      13.11259334
Si      14.09776572      13.11751599      15.42229249
Si      13.99183833      14.97211561      13.90999883
Si      13.15157884      14.13822371      11.82951655
Si      12.28881780      13.18260524      13.85059879
5
Lattice="27.25 0.0 0.0 0.0 27.25 0.0 0.0 0.0 27.25" Properties=species:S:1:pos:R:3 energy=-43.721472328619086 minima_index=10 pbc="T T T"
Si      14.61160457      12.79216815      13.02154248
Si      14.24140966      13.08564356      15.36754203
Si      13.93085014      14.98289796      13.93571703
Si      13.01023844      14.16020849      11.87940806
Si      12.33089719      13.10408184      13.92079039
5
Lattice="27.25 0.0 0.0 0.0 27.25 0.0 0.0 0.0 27.25" Properties=species:S:1:pos:R:3 energy=-43.72151180058781 minima_index=11 pbc="T T T"
Si      12.74072632      13.90833703      12.54193237
Si      12.95240935      11.82253785      13.70253864
Si      14.93556718      13.12549353      13.36383328
Si      14.29686117      15.42715551      13.54736691
Si      13.19943597      13.84147609      14.96932879
5
Lattice="27.25 0.0 0.0 0.0 27.25 0.0 0.0 0.0 27.25" Properties=species:S:1:pos:R:3 energy=-43.72139884830992 minima_index=12 pbc="T T T"
Si      13.22947228      12.52391534      12.80813254
Si      14.71759274      12.44647759      14.68143986
Si      14.78101247      14.38849347      13.28265356
Si      12.53031219      14.80360916      12.56700194
Si      12.86661032      13.96250445      14.78577210
5
Lattice="27.25 0.0 0.0 0.0 27.25 0.0 0.0 0.0 27.25" Properties=species:S:1:pos:R:3 energy=-43.72148988749107 minima_index=13 pbc="T T T"
Si      13.25447954      12.47940509      12.86255482
Si      14.57035350      12.49511991      14.86495413
Si      14.83804823      14.31651429      13.32904720
Si      12.67822733      14.75378468      12.38512438
Si      12.78389140      14.08017602      14.68331947
5
Lattice="27.25 0.0 0.0 0.0 27.25 0.0 0.0 0.0 27.25" Properties=species:S:1:pos:R:3 energy=-43.721252403758584 minima_index=14 pbc="T T T"
Si      13.33357267      13.81855346      12.24523428
Si      12.45284250      12.09679933      13.65433295
Si      14.71354828      12.79697298      14.02130527
Si      14.80033627      15.15034327      13.58663485
Si      12.82470027      14.26233095      14.61749265
5
Lattice="27.25 0.0 0.0 0.0 27.25 0.0 0.0 0.0 27.25" Properties=species:S:1:pos:R:3 energy=-43.721530223759416 minima_index=15 pbc="T T T"
Si      13.37344599      13.87725128      12.24510276
Si      12.54508292      12.03418578      13.52957452
Si      14.75084328      12.83959484      14.01261088
Si      14.70337890      15.21674021      13.71909371
Si      12.75224890      14.15722789      14.61861812
